!   File created by MacMolPlt 7.7.3
 $CONTRL SCFTYP=rhf RUNTYP=ENERGY MAXIT=10 $END
 $contrl ispher=1 $end
 $contrl icharg=0 mult=1 $end
 $CONTRL NPRINT=-5 $END
 $SYSTEM mwords=5000 memddi=5000 $END
 $BASIS
 GBASIS=df2tzvp !  Basis set name in the external file
 BASNAM=def2dt ! External file name, same as extbas in gms-files.*
 EXTFIL=.T. ! Tell gamess to look for an external file
 $END
 $SCF DIRSCF=.TRUE. $END
 $DATA
04a
C1
C 6.0 -0.294062 0.576964 0.000000
O 8.0 0.272387 1.667716 0.000000
N 7.0 0.316817 -0.618403 0.000000
H 1.0 -0.240009 -1.452956 0.000000
H 1.0 1.337343 -0.683701 0.000000
H 1.0 -1.392475 0.510380 0.000000
 $END
