!   File created by MacMolPlt 7.7.3
 $CONTRL SCFTYP=rhf RUNTYP=ENERGY MAXIT=1 $END
 $contrl ispher=1 $end
 $contrl icharg=0 mult=1 $end
 $CONTRL NPRINT=-5 $END
 $SYSTEM mwords=5000 memddi=5000 $END
 $BASIS GBASIS=CCT $END
 $SCF DIRSCF=.TRUE. $END
 $DATA
33
C1
N 7.0 1.521951 -0.000247 -1.121427
C 6.0 0.819919 -1.140253 -1.160811
H 1.0 1.399288 -2.054976 -1.127007
C 6.0 -0.569154 -1.193127 -1.246226
H 1.0 -1.073519 -2.148575 -1.278199
C 6.0 -1.281045 0.000120 -1.293707
H 1.0 -2.360127 0.000244 -1.362060
C 6.0 -0.568832 1.193162 -1.246369
H 1.0 -1.072943 2.148734 -1.278419
C 6.0 0.820220 1.139943 -1.160998
H 1.0 1.399829 2.054498 -1.127388
C 6.0 0.160173 0.666426 2.234382
H 1.0 1.070647 1.225912 2.075267
H 1.0 -0.749374 1.228830 2.391342
C 6.0 0.160506 -0.666261 2.234514
H 1.0 1.071242 -1.225344 2.075503
H 1.0 -0.748782 -1.229086 2.391603
 $END
