!   File created by MacMolPlt 7.7.3
 $CONTRL SCFTYP=rhf RUNTYP=ENERGY MAXIT=10 $END
 $contrl ispher=1 $end
 $contrl icharg=0 mult=1 $end
 $CONTRL NPRINT=-5 $END
 $SYSTEM mwords=5000 memddi=5000 $END
 $BASIS GBASIS=N311 NGAUSS=6 NDFUNC=3 NFFUNC=1 NPFUNC=3 $END
 $SCF DIRSCF=.TRUE. $END
 $DATA
39B
C1
C 6.0 -0.847728 -0.866947 -0.398843
H 1.0 -0.953982 -0.691998 -1.471150
H 1.0 -1.499365 -1.696211 -0.125692
C 6.0 0.621813 -1.124010 -0.054713
H 1.0 1.117044 -1.761595 -0.785298
H 1.0 0.685093 -1.624224 0.912753
C 6.0 1.261950 0.281386 0.036240
H 1.0 1.912219 0.474057 -0.815613
H 1.0 1.874818 0.370556 0.931965
C 6.0 0.082904 1.280563 0.063112
H 1.0 -0.034247 1.739534 -0.919174
H 1.0 0.228498 2.082068 0.785510
C 6.0 -1.150867 0.423468 0.358761
H 1.0 -2.081856 0.899206 0.052847
H 1.0 -1.216293 0.214147 1.429296
 $END
