!   File created by MacMolPlt 7.7.3
 $CONTRL SCFTYP=rhf RUNTYP=ENERGY MAXIT=10 $END
 $contrl ispher=1 $end
 $contrl icharg=0 mult=1 $end
 $CONTRL NPRINT=-5 $END
 $SYSTEM mwords=5000 memddi=5000 $END
 $BASIS GBASIS=CCD $END
 $SCF DIRSCF=.TRUE. $END
 $DATA
21a
C1
C 6.0 1.474597 -1.938934 0.000000
C 6.0 0.100833 -2.031062 0.000000
C 6.0 -0.402523 -0.696695 0.000000
C 6.0 0.726644 0.169977 0.000000
C 6.0 0.601109 1.562156 0.000000
C 6.0 -0.681941 2.087034 0.000000
C 6.0 -1.814743 1.247868 0.000000
C 6.0 -1.689109 -0.131333 0.000000
H 1.0 2.797234 -0.285498 0.000000
H 1.0 2.221712 -2.714930 0.000000
H 1.0 -0.467867 -2.945218 0.000000
H 1.0 1.471836 2.204341 0.000000
H 1.0 -0.817049 3.160175 0.000000
H 1.0 -2.799891 1.694326 0.000000
H 1.0 -2.567311 -0.763904 0.000000
N 7.0 1.846469 -0.618305 0.000000
 $END
