!   File created by MacMolPlt 7.7.3
 $CONTRL SCFTYP=rhf RUNTYP=ENERGY MAXIT=1 $END
 $contrl ispher=1 $end
 $contrl icharg=0 mult=1 $end
 $CONTRL NPRINT=-5 $END
 $SYSTEM mwords=5000 memddi=5000 $END
 $BASIS GBASIS=CCD $END
 $SCF DIRSCF=.TRUE. $END
 $DATA
38A
C1
C 6.0 0.999439 -0.799325 0.176099
H 1.0 1.547125 -1.185837 -0.682431
H 1.0 1.463943 -1.222258 1.065174
C 6.0 1.033508 0.751029 0.179653
H 1.0 1.553153 1.115617 -0.705903
H 1.0 1.558817 1.152338 1.044686
C 6.0 -0.436893 1.194839 0.138028
H 1.0 -0.573710 2.157398 -0.352284
H 1.0 -0.832183 1.281592 1.152219
C 6.0 -1.139548 0.039724 -0.572505
H 1.0 -0.906323 0.065690 -1.639656
H 1.0 -2.223106 0.058956 -0.464577
C 6.0 -0.488101 -1.182369 0.073459
H 1.0 -0.647832 -2.104501 -0.482859
H 1.0 -0.908291 -1.322892 1.070897
 $END
