!   File created by MacMolPlt 7.7.3
 $CONTRL SCFTYP=rhf RUNTYP=ENERGY MAXIT=10 $END
 $contrl ispher=1 $end
 $contrl icharg=0 mult=1 $end
 $CONTRL NPRINT=-5 $END
 $SYSTEM mwords=5000 memddi=5000 $END
 $BASIS GBASIS=CCD $END
 $SCF DIRSCF=.TRUE. $END
 $DATA
14A
C1
C 6.0 0.347419 -0.191975 1.851575
H 1.0 1.350737 0.220393 1.774671
H 1.0 0.403512 -1.215746 2.215772
H 1.0 -0.225915 0.382163 2.574871
C 6.0 -0.394510 -0.185282 0.533513
O 8.0 -1.574843 -0.512240 0.450785
N 7.0 0.334039 0.201706 -0.538223
H 1.0 1.320104 0.417054 -0.435888
C 6.0 -0.271806 0.215264 -1.850130
H 1.0 -1.188936 0.800237 -1.838522
H 1.0 0.427188 0.658607 -2.554178
H 1.0 -0.526990 -0.790183 -2.184247
 $END
