!   File created by MacMolPlt 7.7.3
 $CONTRL SCFTYP=rhf RUNTYP=ENERGY MAXIT=1 $END
 $contrl ispher=1 $end
 $contrl icharg=0 mult=1 $end
 $CONTRL NPRINT=-5 $END
 $SYSTEM mwords=5000 memddi=5000 $END
 $BASIS GBASIS=CCT $END
 $SCF DIRSCF=.TRUE. $END
 $DATA
16a
C1
C 6.0 -0.667579 0.000000 0.000000
C 6.0 0.667579 0.000000 0.000000
H 1.0 1.232254 0.923621 0.000000
H 1.0 1.232254 -0.923621 0.000000
H 1.0 -1.232254 -0.923621 0.000000
H 1.0 -1.232254 0.923621 0.000000
 $END
