!   File created by MacMolPlt 7.7.3
 $CONTRL SCFTYP=rhf RUNTYP=ENERGY MAXIT=10 $END
 $contrl ispher=1 $end
 $contrl icharg=0 mult=1 $end
 $CONTRL NPRINT=-5 $END
 $SYSTEM mwords=5000 memddi=5000 $END
 $BASIS
 GBASIS=df2tzvp !  Basis set name in the external file
 BASNAM=def2dt ! External file name, same as extbas in gms-files.*
 EXTFIL=.T. ! Tell gamess to look for an external file
 $END
 $SCF DIRSCF=.TRUE. $END
 $DATA
14
C1
C 6.0 -1.024975 -0.076284 1.948693
H 1.0 -0.021657 0.336084 1.871789
H 1.0 -0.968881 -1.100055 2.312890
H 1.0 -1.598309 0.497853 2.671989
C 6.0 -1.766904 -0.069591 0.630631
O 8.0 -2.947237 -0.396549 0.547903
N 7.0 -1.038355 0.317396 -0.441105
H 1.0 -0.052290 0.532744 -0.338770
C 6.0 -1.644200 0.330954 -1.753012
H 1.0 -2.561330 0.915928 -1.741404
H 1.0 -0.945206 0.774298 -2.457060
H 1.0 -1.899384 -0.674492 -2.087129
N 7.0 1.991887 0.641611 -0.259175
H 1.0 2.395553 1.181530 0.496025
H 1.0 2.409891 1.008992 -1.104821
C 6.0 2.364190 -0.769572 -0.105422
H 1.0 1.937902 -1.340605 -0.926798
H 1.0 3.439588 -0.956262 -0.079639
H 1.0 1.929717 -1.153979 0.814414
 $END
