!   File created by MacMolPlt 7.7.3
 $CONTRL SCFTYP=rhf RUNTYP=ENERGY MAXIT=1 $END
 $contrl ispher=1 $end
 $contrl icharg=0 mult=1 $end
 $CONTRL NPRINT=-5 $END
 $SYSTEM mwords=5000 memddi=5000 $END
 $BASIS GBASIS=N311 NGAUSS=6 NDFUNC=3 NFFUNC=1 NPFUNC=3 $END
 $SCF DIRSCF=.TRUE. $END
 $DATA
41B
C1
C 6.0 1.048939 2.324307 0.040374
H 1.0 0.618091 2.635355 -0.912409
H 1.0 0.414705 2.729740 0.828622
H 1.0 2.031819 2.784754 0.133496
C 6.0 1.121956 0.805436 0.129892
H 1.0 1.552339 0.515873 1.091183
H 1.0 1.796545 0.414275 -0.635226
C 6.0 -0.242829 0.147269 -0.024924
H 1.0 -0.914074 0.516145 0.756695
H 1.0 -0.690300 0.457534 -0.974825
C 6.0 -0.186541 -1.373417 0.034711
H 1.0 0.237065 -1.675848 0.995347
H 1.0 0.504981 -1.735296 -0.729791
C 6.0 -1.555823 -2.015291 -0.149063
H 1.0 -1.994202 -1.741833 -1.109248
H 1.0 -1.498885 -3.102059 -0.105005
H 1.0 -2.243786 -1.686945 0.630170
 $END
