!   File created by MacMolPlt 7.7.3
 $CONTRL SCFTYP=rhf RUNTYP=ENERGY MAXIT=1 $END
 $contrl ispher=1 $end
 $contrl icharg=0 mult=1 $end
 $CONTRL NPRINT=-5 $END
 $SYSTEM mwords=5000 memddi=5000 $END
 $BASIS GBASIS=CCD $END
 $SCF DIRSCF=.TRUE. $END
 $DATA
62A
C1
C 6.0 -2.536691 -0.239774 -0.099033
H 1.0 -2.559304 -0.793034 -1.038111
H 1.0 -2.608659 -0.968555 0.709223
H 1.0 -3.424950 0.388957 -0.059530
C 6.0 -1.258475 0.580726 0.016571
H 1.0 -1.266166 1.166594 0.937850
H 1.0 -1.211292 1.298906 -0.805268
C 6.0 -0.005745 -0.284928 -0.010051
H 1.0 -0.035090 -0.990027 0.827384
H 1.0 -0.002724 -0.893511 -0.919965
C 6.0 1.282681 0.523398 0.063541
H 1.0 1.264368 1.136894 0.966102
H 1.0 1.317382 1.214709 -0.781597
C 6.0 2.523660 -0.359812 0.050730
H 1.0 2.571804 -0.951931 -0.863388
H 1.0 3.438819 0.227422 0.115417
H 1.0 2.510382 -1.056032 0.890127
 $END
