 $CONTRL SCFTYP=rhf RUNTYP=ENERGY MAXIT=10 $END 
 $contrl ispher=1 $end
 $contrl icharg=0 mult=1 $end
 $CONTRL NPRINT=-5 $END
 $SYSTEM mwords=5000 memddi=5000 $END
 $BASIS
 GBASIS=df2tzvp !  Basis set name in the external file
 BASNAM=def2dt ! External file name, same as extbas in gms-files.*
 EXTFIL=.T. ! Tell gamess to look for an external file
 $END 
 $SCF DIRSCF=.TRUE. $END
 $DATA
256 water molecules
C1
H     1.0    -5.30522203    -4.87983894    -3.18546891
H     1.0    -3.73335290    -5.31424904    -3.27121496
O     8.0    -4.36305380    -4.54567289    -3.15770411
H     1.0    -7.84105015     4.90431023    -7.42757893
H     1.0    -8.08635998     3.52742600    -6.58446121
O     8.0    -7.39491606     4.16784477    -6.91895485
H     1.0    -7.64958715     4.05965805     4.98892784
H     1.0    -7.87749815     4.77572584     6.43880415
O     8.0    -8.05890465     3.95596910     5.89547300
H     1.0    -3.51870894     9.54999828    -6.35463619
H     1.0    -2.41983891     8.81533337    -7.31358719
O     8.0    -3.20100188     8.66942692    -6.70644999
H     1.0     3.01781797    -6.99567413     3.38042212
H     1.0     4.63792610    -7.09193802     3.19926000
O     8.0     3.87322307    -7.27369785     3.81757307
H     1.0     7.46581507     7.49629116     1.11504698
H     1.0     8.38086891     6.51820421     2.04931498
O     8.0     7.51913214     7.02267599     1.99423003
H     1.0     1.48677397    -0.94273800    -6.36470985
H     1.0     2.21217799    -2.35811996    -5.99414492
O     8.0     2.36148000    -1.42576599    -6.32360315
H     1.0     0.02634300     7.95846891    -7.35532379
H     1.0    -0.46151501     6.42177820    -7.09568787
O     8.0    -0.76681602     7.36745596    -7.20795107
H     1.0    -5.04226589    -3.04471588    -1.70155299
H     1.0    -6.42157602    -2.59006190    -0.95480603
O     8.0    -5.42764902    -2.48070192    -0.97115302
H     1.0     7.82118320     1.61389506    -7.75576496
H     1.0     9.12773037     0.98188603    -7.00721121
O     8.0     8.74068642     1.80920506    -7.41446686
H     1.0     4.53555679    -4.34987688     3.03682899
H     1.0     5.81785583    -5.24904490     3.49947691
O     8.0     5.49334717    -4.31972408     3.32291508
H     1.0    -3.03241301   -11.59890938    -0.09257800
H     1.0    -1.50865901   -11.01978970     0.00554700
O     8.0    -2.47627211   -10.79631710     0.12345500
H     1.0     9.02970791     5.71598101    -3.13046098
H     1.0    10.19319153     5.99800587    -2.01978397
O     8.0     9.64313030     6.40701818    -2.74797201
H     1.0    -3.68209195     0.81615198     5.35331917
H     1.0    -2.09289098     1.18883896     5.30454779
O     8.0    -2.76017594     0.44725299     5.23456907
H     1.0     2.29443693     8.27500916     6.79105616
H     1.0     3.85143995     8.69849014     7.04253483
O     8.0     3.22872901     8.19503498     6.44346714
H     1.0     5.47184086    10.02331543     2.65201998
H     1.0     6.01153278     9.73668861     1.13761795
O     8.0     5.48463583     9.36299706     1.90106595
H     1.0     2.86083889    -9.43203926    -0.78247303
H     1.0     1.60542297    -9.30982113    -1.81969595
O     8.0     2.31947803    -8.80123329    -1.33846605
H     1.0    -5.57788801     2.30961895    -5.03593111
H     1.0    -5.60267401     3.88141990    -5.47826910
O     8.0    -6.11447811     3.02230310    -5.48789215
H     1.0    -3.36061502     1.73743105    -9.80833912
H     1.0    -3.53932309     0.60355401   -10.96990013
O     8.0    -3.32982206     1.56528699   -10.79298878
H     1.0    -0.25694001    -5.61998081     6.96349478
H     1.0    -1.85181201    -5.28132582     7.05585909
O     8.0    -0.93857801    -4.88838482     6.94760323
H     1.0     4.75924015     2.27045488     9.56249332
H     1.0     3.71995497     2.08030510    10.80770969
O     8.0     3.81442404     2.05831695     9.81236553
H     1.0    -5.96779919    -5.94831514     3.65051389
H     1.0    -5.58692884    -4.46982002     4.23002005
O     8.0    -6.33152723    -5.11925507     4.07533979
H     1.0    -0.16157900     9.18287086     7.19058990
H     1.0    -1.29462504     8.54250622     8.17698574
O     8.0    -0.34719300     8.46860600     7.86548901
H     1.0    -5.84542894    -3.24590611     1.56111097
H     1.0    -5.63058090    -1.64666498     1.81231797
O     8.0    -5.16909981    -2.51099396     1.61209202
H     1.0     7.72958803    -0.75107002     7.49717522
H     1.0     9.34591198    -0.98217702     7.52753019
O     8.0     8.45574760    -1.43794298     7.52899408
H     1.0     1.50887299    -7.99265718     7.84398699
H     1.0     1.44068396    -8.84795761     6.45450878
O     8.0     2.02652311    -8.57604408     7.21803617
H     1.0    -1.07445002    -0.65219402     2.35868311
H     1.0    -0.32383800     0.77511197     2.10136390
O     8.0    -1.19471002     0.28753000     2.03841305
H     1.0    -8.26502991     5.23578596    -4.40054512
H     1.0    -8.52506256     6.36073494    -5.55540800
O     8.0    -8.89640808     5.54500198    -5.11178589
H     1.0     9.62831306    -0.86328399    -4.66482687
H     1.0     9.73009014     0.73091900    -4.32571983
O     8.0     9.12690353     0.00185500    -4.64937210
H     1.0    -6.43327713    -8.29467392     4.53643513
H     1.0    -7.94990110    -7.70106602     4.41678381
O     8.0    -7.07979107    -7.82069016     3.93854189
H     1.0     0.56701201     2.07391191    -6.04761791
H     1.0     1.05026305     3.43933296    -6.80189085
O     8.0     1.34725797     2.67067289    -6.23525715
H     1.0    -2.86520696    -7.88304186    -3.25525904
H     1.0    -3.80326509    -7.59749508    -4.56114817
O     8.0    -3.03395009    -7.25964117    -4.01881313
H     1.0    -2.48346996     5.17830515    -9.79715443
H     1.0    -1.20575094     5.92341709    -9.10499763
O     8.0    -1.65969396     5.71768618    -9.97202110
H     1.0     1.20129895     0.87954402     0.52167100
H     1.0     0.00698500     1.64566803    -0.28672501
O     8.0     0.75038898     1.75961494     0.37242901
H     1.0     2.34608698    -7.20426798    -4.90348291
H     1.0     2.18532610    -8.82937813    -4.90006924
O     8.0     2.83979392    -8.07366371    -4.92629099
H     1.0     6.68865204     7.59878922    -1.55188894
H     1.0     6.67171717     5.97785282    -1.74966300
O     8.0     6.10380888     6.79012299    -1.61619198
H     1.0     3.23172688    -1.95819795    -9.83143616
H     1.0     4.50147295    -1.64548099   -10.80959225
O     8.0     4.10572910    -1.47799695    -9.90656662
H     1.0     1.12670696     5.31147099    -5.27567482
H     1.0     2.66758990     5.85057116    -5.31909990
O     8.0     2.08798099     5.03608894    -5.29100180
H     1.0     6.48698521     4.92671299     0.27120200
H     1.0     7.94654083     4.61085701     0.93208802
O     8.0     7.37744522     5.31543589     0.50804001
H     1.0    -1.13101900     2.75295401     1.42911506
H     1.0    -0.83359402     4.31655788     1.79451299
O     8.0    -0.41463101     3.43459797     1.57833195
H     1.0    -7.45490313    -4.81106091     2.20273209
H     1.0    -7.10873795    -5.47318792     0.75063199
O     8.0    -6.98255205    -5.56059694     1.73883903
H     1.0     4.91306686     1.62158501   -10.82727432
H     1.0     3.66418791     0.71647203   -10.29070377
O     8.0     3.92547607     1.47581995   -10.88672161
H     1.0     7.13551903     0.12610599     2.49187994
H     1.0     5.51820421     0.25509900     2.67759299
O     8.0     6.25056791    -0.26248699     2.23502493
H     1.0    -4.72334480    -0.93698198    -2.39528394
H     1.0    -3.86482310    -1.38936996    -3.70872211
O     8.0    -3.93363500    -0.71976203    -2.96912193
H     1.0    -0.44549599    -5.33257389    -3.24429703
H     1.0    -1.75192297    -4.40993404    -3.57417798
O     8.0    -1.27896500    -4.93154812    -2.86400294
H     1.0     4.57006598     5.77025604     8.33726883
H     1.0     5.11650515     4.62013817     7.31478691
O     8.0     4.79266024     5.56374502     7.38441992
H     1.0    -2.61289001     5.50092077    -4.72902012
H     1.0    -2.55882597     6.50559092    -6.01531315
O     8.0    -2.64419794     5.55171680    -5.72729588
H     1.0     5.81924105    -4.12234688     5.48266983
H     1.0     7.28166723    -3.52487206     5.06894493
O     8.0     6.30429602    -3.32205296     5.13001299
H     1.0    -6.37992907     8.80034256    -1.96365702
H     1.0    -5.66643286     7.33463621    -1.86638296
O     8.0    -5.58369017     8.26011658    -2.23619008
H     1.0    -0.15479299    -3.38950992    -9.93571758
H     1.0     0.84179598    -2.11077404    -9.73955536
O     8.0     0.79957497    -3.10414195    -9.84704304
H     1.0     2.43834400     0.75517398     7.17797422
H     1.0     2.27868700    -0.75499201     6.57735395
O     8.0     2.16904998     0.21884499     6.37800598
H     1.0     3.90516591    -0.14096600     9.80621243
H     1.0     2.99022388    -1.49302495     9.84689808
O     8.0     2.96969390    -0.49323100     9.83650589
H     1.0     8.20354557     2.46831012    -1.04402101
H     1.0     7.83542824     1.08445096    -1.82904100
O     8.0     7.69246292     1.61037600    -0.99054199
H     1.0     3.72635198    -2.24819493     7.27072001
H     1.0     4.46245289    -3.69287205     7.07604122
O     8.0     3.77664304    -3.19026804     7.60251188
H     1.0    -3.01728702     2.42477202     0.35401401
H     1.0    -3.82883310     1.00895298     0.41473699
O     8.0    -3.09523392     1.51058698    -0.04386300
H     1.0     1.43285596   -11.78851318     1.72542298
H     1.0     0.18670100   -10.77786922     1.42122698
O     8.0     1.17851698   -10.89190102     1.36277294
H     1.0    -2.64927101    -8.03190041     8.41409779
H     1.0    -1.33500803    -7.08453512     8.20903873
O     8.0    -1.66702604    -7.95040083     8.58341694
H     1.0    -3.81426907    -8.34237194     6.57015610
H     1.0    -4.05056095    -6.87130785     7.23871803
O     8.0    -4.49725294    -7.71797180     6.94933081
H     1.0    10.24654961    -1.39398396     4.38079977
H     1.0     9.32310009    -1.99726701     5.58501196
O     8.0     9.81489372    -2.22008300     4.74322224
H     1.0     3.83436489    -6.81201982    -6.47484493
H     1.0     5.33430004    -6.47783899    -5.92225504
O     8.0     4.79932880    -6.73694277    -6.72648716
H     1.0     1.77348006     6.02690220     8.38301182
H     1.0     0.60805798     6.45925522     7.32391024
O     8.0     1.56715095     6.19222879     7.41853714
H     1.0     8.49797726    -6.22944593     3.71194792
H     1.0     7.14599800    -6.97196293     3.17561102
O     8.0     8.09514236    -7.10918999     3.45917892
H     1.0     4.00366402     9.80663490     5.13757896
H     1.0     2.77320910    10.68724442     4.52329683
O     8.0     3.01845789     9.82514477     4.96686792
H     1.0     6.00143194    -2.67758894     0.20707101
H     1.0     5.55005693    -1.10963500     0.13914201
O     8.0     5.98040724    -1.81157506     0.70676500
H     1.0     2.72511697    -4.90708685     4.15672302
H     1.0     2.11726499    -3.92251110     3.00435090
O     8.0     1.90476894    -4.43197918     3.83825994
H     1.0     7.40453482     1.14457595     4.82141399
H     1.0     5.88067007     1.01365697     5.39371681
O     8.0     6.56115294     1.64399803     5.01990986
H     1.0    -1.55965400    -8.26530075     3.14129901
H     1.0     0.04699800    -7.98116302     3.21036005
O     8.0    -0.68134803    -8.42966461     2.69221306
H     1.0    -4.29894018    -7.04112482     4.86345911
H     1.0    -2.89932704    -6.48872185     4.22881603
O     8.0    -3.89615703    -6.46511221     4.15205812
H     1.0    -2.73134494    -3.76094294     1.15333700
H     1.0    -3.97505212    -3.71688509     0.09594000
O     8.0    -3.69038010    -4.00559998     1.01011896
H     1.0     8.54014969     4.92540693    -6.84136200
H     1.0     7.51495790     3.65858889    -6.94619179
O     8.0     8.46565723     3.92923403    -6.79439878
H     1.0    -5.91039419     3.64720798     6.26016283
H     1.0    -4.83445883     2.42021489     6.32088518
O     8.0    -5.76725483     2.70023608     6.54803610
H     1.0    -1.47955406    -8.83831310     0.25644100
H     1.0    -1.29793096    -7.21628380     0.31001899
O     8.0    -0.81540400    -8.09221840     0.30504301
H     1.0    -6.43836308    -8.41622925     0.30757201
H     1.0    -7.27076721    -7.74158907     1.53996801
O     8.0    -6.76469994    -8.55147839     1.24316204
H     1.0    -1.81293905    -2.94858789    -0.72031701
H     1.0    -1.64106202    -4.56616116    -0.57625300
O     8.0    -1.15279400    -3.69695711    -0.65496802
H     1.0    -5.80412388    -4.99565315    -1.02923799
H     1.0    -7.05922222    -4.45867014    -1.92545998
O     8.0    -6.71968508    -5.21516514    -1.36640096
H     1.0     1.18183804     1.83523798   -10.83332825
H     1.0     0.92816699     0.50427097   -11.74492741
O     8.0     1.60971296     1.17380595   -11.44940186
H     1.0    -6.56399298     6.84133387     1.40542305
H     1.0    -7.59874916     7.65191507     0.43636400
O     8.0    -7.03919220     6.82786798     0.52558100
H     1.0    -5.46418095    -2.12951207    -8.57665920
H     1.0    -6.75429916    -1.62791300    -7.71015501
O     8.0    -5.81017399    -1.41824806    -7.96468782
H     1.0     7.94024181     3.16031790     2.60491204
H     1.0     6.72035789     2.11362910     2.89328909
O     8.0     7.71259308     2.20892692     2.81263399
H     1.0     1.33470297    -0.43585399    -1.45715201
H     1.0     1.83907497     1.11100197    -1.59744298
O     8.0     2.13446212     0.16448000    -1.46720803
H     1.0    -1.80568004     0.73706698    -3.37898803
H     1.0    -0.72907799     1.17733002    -4.52525711
O     8.0    -0.99329400     1.28907299    -3.56722689
H     1.0    -1.32012701     5.74296379     7.25974798
H     1.0    -2.90290594     5.37541723     7.09678602
O     8.0    -2.01323390     5.03638983     7.40283012
H     1.0    -0.30170500   -10.62135506     5.56891823
H     1.0     1.02963603   -10.16711712     4.73943996
O     8.0     0.04152000   -10.04207897     4.82949114
H     1.0     1.96394706   -11.44794846    -0.74440598
H     1.0     0.43573099   -11.04064369    -1.15121698
O     8.0     1.19018900   -11.67001057    -1.33778799
H     1.0     2.90460992     4.43233919     7.30128098
H     1.0     2.93748093     3.43685794     6.00715113
O     8.0     3.16002607     4.35414982     6.33755684
H     1.0    -6.53234482     7.78462076     6.21273613
H     1.0    -6.21678591     6.18337107     6.15568304
O     8.0    -6.92201090     6.87095594     6.32889605
H     1.0    -4.40802097     6.52087021     0.87140399
H     1.0    -3.84275389     6.04827309     2.32878590
O     8.0    -3.93191290     6.81962395     1.69855797
H     1.0    -5.26390409    -7.85852003     2.69383597
H     1.0    -4.17146397    -9.01190662     2.31553793
O     8.0    -4.31312418    -8.14933491     2.80135703
H     1.0    -3.43418288   -11.07938957     2.76786804
H     1.0    -2.21896791   -10.14318180     2.20786500
O     8.0    -2.50545096   -11.08248234     2.39697194
H     1.0    -7.84648323    -3.34936810     0.63401902
H     1.0    -9.39425659    -3.35208297     0.11322500
O     8.0    -8.63692474    -3.92553806     0.42581901
H     1.0   -10.55790138     3.98816299    -2.40792203
H     1.0    -8.96420956     4.32503510    -2.52412200
O     8.0    -9.72698689     3.83128905    -2.94185805
H     1.0     0.89521700     4.14519978     5.75281715
H     1.0    -0.50708598     3.72213292     6.47489405
O     8.0     0.00313100     4.47601318     6.06081486
H     1.0    -3.61869597    -5.59333897    -0.99648398
H     1.0    -2.33672905    -6.39686584    -1.61108994
O     8.0    -3.01026201    -6.37721109    -0.87211502
H     1.0    -4.02467299     1.00858605     8.70683289
H     1.0    -5.01042986    -0.28691801     8.83641148
O     8.0    -4.94877481     0.70582199     8.94025517
H     1.0    10.98521328    -0.03324000    -2.64482498
H     1.0     9.46822071    -0.35793301    -2.13478088
O     8.0    10.37224674    -0.03485500    -1.85464394
H     1.0     3.31625795    -4.62500715    -9.04000378
H     1.0     4.65384722    -4.81613588    -9.95715332
O     8.0     4.00104094    -5.28052711    -9.35856819
H     1.0    10.42154980    -1.08000004     0.92346400
H     1.0     9.38329124     0.17569900     1.03334796
O     8.0    10.33253002    -0.11241700     1.16005099
H     1.0    -9.35351467     5.44152308     2.85309601
H     1.0    -9.09519100     6.58066177     1.71183896
O     8.0    -9.58285332     5.73389101     1.92463398
H     1.0     3.49743795     1.26555896    -5.19766092
H     1.0     4.49595308    -0.02027000    -5.32590723
O     8.0     3.54041409     0.26882201    -5.26683378
H     1.0    -5.32628107    -1.29997003     5.92380714
H     1.0    -6.40304422    -1.82387996     7.03418303
O     8.0    -5.55592918    -2.04458094     6.55065012
H     1.0    -2.48370290    -0.79946601    -1.28235698
H     1.0    -0.91734302    -0.37518999    -1.09976196
O     8.0    -1.83450997    -0.03945400    -1.31471097
H     1.0     1.51655602    -3.06741905    10.78040314
H     1.0     0.27381900    -2.03427911    10.54574585
O     8.0     0.54506898    -2.90585995    10.95426559
H     1.0     2.64448500    -3.38959789    -1.37866795
H     1.0     3.14650011    -1.85926902    -1.10864997
O     8.0     2.37225294    -2.42735004    -1.38783503
H     1.0    -5.75586224     7.97380686    -6.20283318
H     1.0    -6.21458721     6.49821997    -6.73108721
O     8.0    -6.53938103     7.38989496    -6.41558123
H     1.0     8.50531387    -2.89527011     3.10009193
H     1.0     8.84813118    -1.45461702     2.41173911
O     8.0     8.25960922    -2.26188898     2.36621594
H     1.0    -7.84929180    -5.56770706     7.03895998
H     1.0    -8.98239422    -4.85455704     6.10390186
O     8.0    -8.28494453    -5.57042408     6.13878393
H     1.0    -2.68635106    -4.56167412     3.20057607
H     1.0    -3.93474197    -3.51094890     3.13474894
O     8.0    -3.47183895    -4.19465923     3.69899988
H     1.0     5.51990604     6.54512310    -7.52466011
H     1.0     4.09930706     6.82571507    -6.76967478
O     8.0     4.72132683     6.11659288    -7.10187292
H     1.0     1.42565799     6.89805794    -3.78193998
H     1.0    -0.08549900     7.41754103    -4.11865616
O     8.0     0.83907199     7.70356798    -3.86671305
H     1.0    -2.64854693    -3.45191789     6.11769390
H     1.0    -1.19040799    -2.90343094     5.62797117
O     8.0    -1.82983601    -2.94928789     6.39553022
H     1.0    -3.06753111    -9.65973377    -1.91695702
H     1.0    -3.18700004   -10.47367668    -3.32765198
O     8.0    -3.20667911   -10.55915165    -2.33144689
H     1.0    -3.92654204     4.37503290    -8.30261612
H     1.0    -4.42760086     5.90374708    -8.02188301
O     8.0    -4.56371593     4.94267988    -7.78117323
H     1.0    -0.24856301     3.47139311     3.77417207
H     1.0    -0.11323500     1.87139904     4.07172823
O     8.0    -0.64433599     2.57092905     3.59349489
H     1.0     1.99532902    11.02444363    -1.94299197
H     1.0     1.96447897    10.96592999    -3.57469702
O     8.0     1.74626994    11.52302456    -2.77335501
H     1.0    -5.05435085     2.99246812    10.49271584
H     1.0    -3.47311306     2.71800804    10.19073391
O     8.0    -4.36405897     2.90086794     9.77492714
H     1.0    -5.18665314    -3.52528596     8.15185642
H     1.0    -4.00046206    -4.51776505     7.62766886
O     8.0    -4.63058805    -4.32461977     8.37983513
H     1.0    -2.17766404     8.44985390    -3.49668598
H     1.0    -3.80847692     8.53486633    -3.50428200
O     8.0    -3.01772690     7.99347305    -3.79015899
H     1.0    -3.42090893     8.54593277    -0.05840300
H     1.0    -3.95405102    10.05031300     0.28719601
O     8.0    -3.30782795     9.33304691     0.54804701
H     1.0     9.57687569     7.21221495     0.33644301
H     1.0     8.51085186     6.69000816    -0.78504199
O     8.0     9.01728916     7.48326111    -0.44682801
H     1.0    -8.62366295    -5.50033808    -3.06581593
H     1.0    -8.84028244    -7.11125422    -3.22348690
O     8.0    -8.42363930    -6.39424992    -2.66453290
H     1.0     4.41346216    -3.93530011    -6.81656313
H     1.0     5.47145987    -4.58558607    -7.87703609
O     8.0     5.34551620    -4.27832317    -6.93372011
H     1.0    -3.47396302     2.32718897    -5.96702909
H     1.0    -3.99799299     0.84717000    -5.51783895
O     8.0    -3.18926191     1.41402602    -5.67514706
H     1.0     3.77807689    -5.10067511     9.99495792
H     1.0     2.69600892    -5.13832808     8.77244186
O     8.0     3.60115695    -4.81801796     9.05213165
H     1.0    -7.23320103    -1.95726204     4.08226490
H     1.0    -7.84379578    -2.71897697     2.77314305
O     8.0    -7.57875681    -2.82762504     3.73130202
H     1.0     4.39801311    -0.19687600     6.90883780
H     1.0     5.66749907     0.59337503     7.56515121
O     8.0     4.66968489     0.55387300     7.51107407
H     1.0    -6.91357279     0.08528300    -6.07320881
H     1.0    -5.67537880     0.61511397    -6.99678421
O     8.0    -6.66876411     0.62074202    -6.88158321
H     1.0    -3.35683489     2.91107297     4.76795721
H     1.0    -2.79997492     3.34016705     6.24193811
O     8.0    -2.59878397     3.33659291     5.26233292
H     1.0     4.27518415    -1.31737196    -7.40690279
H     1.0     4.14417219     0.08027500    -8.24132061
O     8.0     4.68799400    -0.42086801    -7.56809616
H     1.0    -4.69944096     9.83070564     2.34695196
H     1.0    -5.73933697     8.87533379     1.52675796
O     8.0    -4.87620211     8.89836979     2.03132296
H     1.0    -0.15697600    -6.89903021    -1.51911402
H     1.0     0.87677097    -5.75629377    -0.97841400
O     8.0     0.77105099    -6.72846222    -1.18776906
H     1.0    -4.32299280     1.88202202     3.09856701
H     1.0    -2.70291495     1.90420306     2.89438200
O     8.0    -3.58552289     1.97674501     2.42977500
H     1.0    -3.62119699    -1.04902196     1.10216701
H     1.0    -3.68648505    -0.26842001     2.53507805
O     8.0    -3.50885701    -1.14673197     2.09107900
H     1.0    -0.26787201    -7.29773712    -4.58221006
H     1.0     0.80410898    -7.83646107    -3.47429800
O     8.0    -0.13871200    -7.53633308    -3.61965799
H     1.0    -1.42779398    -5.00799704    10.75733852
H     1.0    -2.80374098    -5.53410578    10.05248928
O     8.0    -1.86552095    -5.77995110    10.29625607
H     1.0     0.06842500    -3.55312800    -7.75283289
H     1.0    -1.03625000    -3.40794110    -6.55891085
O     8.0    -0.32222000    -2.93246293    -7.07291508
H     1.0     1.01115096    -2.03386092     1.59548604
H     1.0     0.44160399    -1.90032995     0.07081500
O     8.0     0.20662101    -1.82379997     1.03985798
H     1.0   -10.73503971    -0.60082799     2.45971394
H     1.0   -10.41718388     0.96195799     2.10828209
O     8.0   -11.03114796     0.19323200     1.92876506
H     1.0    -6.18058300     3.79759312    -8.74365997
H     1.0    -6.73943901     2.34437895    -8.25102901
O     8.0    -6.47467804     2.89073491    -9.04570770
H     1.0     7.46343517    -4.29737806    -3.06192899
H     1.0     8.72306061    -3.25860500    -3.02833104
O     8.0     7.72667789    -3.33526707    -2.99008393
H     1.0   -10.66693115     0.88309401     4.84511518
H     1.0   -10.46304893    -0.72403699     4.63920689
O     8.0   -11.10417747     0.03703200     4.53997707
H     1.0    10.32442379     1.12449396     2.95584202
H     1.0     9.09711170     0.32360899     3.67634511
O     8.0     9.46329212     1.22722805     3.45385098
H     1.0     3.88550591     2.73057604    -8.21324158
H     1.0     4.77250624     1.88881898    -7.13087797
O     8.0     4.63401222     2.78512406    -7.55227423
H     1.0     1.89930797     0.38825300    -3.75758004
H     1.0     1.31005800    -1.07860601    -4.16738892
O     8.0     1.10621405    -0.10064000    -4.12103701
H     1.0     5.44462299    -2.87789392    -3.17087197
H     1.0     4.89017916    -3.08513689    -1.64887404
O     8.0     5.62916899    -3.30519199    -2.28573108
H     1.0    -2.12061405    -2.60048389    -8.75548840
H     1.0    -2.62659192    -3.74775910    -9.80171204
O     8.0    -2.91667199    -3.10039210    -9.09680939
H     1.0     6.74829388    -6.11685705     5.13775921
H     1.0     8.17211914    -6.34412193     5.90451097
O     8.0     7.51562023    -5.65957880     5.58745193
H     1.0     7.98649406    -4.79127789     2.10981297
H     1.0     9.36390591    -5.60577202     1.78397799
O     8.0     8.96539307    -4.69973421     1.92680597
H     1.0    -5.92935801    -4.66283083     6.41205502
H     1.0    -5.95428181    -6.27299213     6.14077091
O     8.0    -5.37173796    -5.46131992     6.18491697
H     1.0     0.72348702    -0.14583901     3.80283904
H     1.0     2.31859493    -0.20141999     4.14834690
O     8.0     1.48534203    -0.74531800     4.04843521
H     1.0    -5.58193684     6.79670715    -4.09529781
H     1.0    -4.74230719     5.93135023    -5.19666719
O     8.0    -4.67305613     6.47363710    -4.35926199
H     1.0    -4.05383205    -6.81566191     1.02473903
H     1.0    -2.72431993    -5.95024681     1.41241002
O     8.0    -3.15298009    -6.85265589     1.45741999
H     1.0    -7.81184578     2.72316790     0.28303799
H     1.0    -8.03441238     4.28976822    -0.12077300
O     8.0    -8.15785885     3.34376502    -0.42070201
H     1.0     6.34796000     6.44322777     3.82271409
H     1.0     7.08160496     5.05571318     3.37171197
O     8.0     6.19905376     5.49871683     3.52972507
H     1.0    11.48491573     2.77915907     0.60821801
H     1.0    10.39396286     2.90620494    -0.60030001
O     8.0    10.52072716     2.67455411     0.36426601
H     1.0     3.31050611    -4.33261108     1.20027494
H     1.0     1.74450600    -4.34287691     0.73727000
O     8.0     2.55683494    -3.77200389     0.85702997
H     1.0    -2.01483297     4.12355804    11.02630329
H     1.0    -0.92981499     2.97506189    11.43925285
O     8.0    -1.04788101     3.93967390    11.20323944
H     1.0    -3.15017104    -9.12556744     4.39665699
H     1.0    -2.92964602   -10.14053726     5.65683222
O     8.0    -3.58105302    -9.82528877     4.96660995
H     1.0    -0.85737002    -1.32027400     7.50759506
H     1.0    -0.35729399    -0.29950899     6.33507681
O     8.0    -0.26225400    -1.22176802     6.70994282
H     1.0    -0.12150700    -5.55415821   -10.32982635
H     1.0     1.40698302    -5.06720114   -10.63548660
O     8.0     0.82484299    -5.85716295   -10.44264126
H     1.0    -5.98313284     5.07515812    -0.27937201
H     1.0    -5.49022579     3.70966291    -1.02723801
O     8.0    -6.07657194     4.51621199    -1.10336494
H     1.0     5.18864298    -2.22255802     2.72657800
H     1.0     4.03543091    -2.37761807     3.87239504
O     8.0     4.60497713    -1.72703004     3.36993003
H     1.0     3.40435100     9.38792801    -1.53193700
H     1.0     4.17750597    10.78942394    -1.85578299
O     8.0     4.29952192     9.82301426    -1.62932897
H     1.0     1.57264805     4.93481684    -1.25342500
H     1.0     0.76786602     6.32690382    -0.96837199
O     8.0     1.67182302     5.90236282    -1.02075803
H     1.0    -6.61217117     1.26936305     5.10669899
H     1.0    -7.95030212     0.34052899     5.22292089
O     8.0    -7.59101295     1.21910298     4.90806007
H     1.0    -4.40930891     7.63388586     5.61470890
H     1.0    -3.68395805     6.84580612     4.38197613
O     8.0    -4.44054317     6.81928921     5.03542280
H     1.0    10.23626900    -4.41138506    -0.70033002
H     1.0     9.82292747    -2.97385097    -0.04498300
O     8.0     9.65653419    -3.95970511    -0.02209000
H     1.0     8.80688477    -6.74734020    -3.47931910
H     1.0     7.24488211    -6.48574400    -3.08113790
O     8.0     8.19227791    -6.39226484    -2.77483702
H     1.0    -0.23211899    -5.38356781     0.93719399
H     1.0    -0.37087199    -4.03048706     1.84093904
O     8.0    -0.80342501    -4.89936686     1.59997201
H     1.0    -5.86167717     3.24195290     3.90107703
H     1.0    -4.68843508     4.37557888     3.82874608
O     8.0    -5.32813311     3.82702994     3.29023099
H     1.0    -7.47497416     1.35353899     7.12294102
H     1.0    -6.17351723     0.36819699     7.07660913
O     8.0    -6.98404312     0.62616402     7.60255384
H     1.0    -0.25633100    -4.42350578     8.96290779
H     1.0    -1.83024204    -4.00548077     8.84085274
O     8.0    -0.90317202    -3.66127896     8.98980141
H     1.0     6.74077702    -1.77503097    -8.24715805
H     1.0     7.64567280    -0.44962600    -8.54931831
O     8.0     6.74584818    -0.77505100    -8.25857735
H     1.0    -8.49946022     0.07182900     1.33389795
H     1.0    -9.11838818    -1.43486702     1.21714604
O     8.0    -8.63568974    -0.79445601     1.81463504
H     1.0     2.29213810    -6.82876396    -8.20076847
H     1.0     3.39001799    -8.03666210    -8.25055790
O     8.0     2.57883906    -7.65188217    -8.69106960
H     1.0    -6.72209501    -2.69235897    -3.75356889
H     1.0    -5.64243317    -2.41076112    -4.94599104
O     8.0    -6.07992601    -3.11833906    -4.39096689
H     1.0    -2.58725095     1.07953703    11.37273216
H     1.0    -3.74890900     0.14165699    10.71109295
O     8.0    -3.56276393     0.85952699    11.38201046
H     1.0    -2.78692889     9.91551590    -1.65405595
H     1.0    -2.89800191    11.02055931    -2.85129404
O     8.0    -3.15279388    10.81116581    -1.90717900
H     1.0    -1.13583195    -0.33921200    -9.67996883
H     1.0    -1.17920494    -1.60349500   -10.71270466
O     8.0    -1.61686003    -0.74069703   -10.45941639
H     1.0    -2.06754708     9.49178696     4.46598721
H     1.0    -3.11996198     8.75712872     3.45626712
O     8.0    -2.41250300     8.60883331     4.14737320