 $CONTRL SCFTYP=rhf RUNTYP=ENERGY MAXIT=1 $END 
 $contrl ispher=1 $end
 $contrl icharg=0 mult=1 $end
 $CONTRL NPRINT=-5 $END
 $SYSTEM mwords=5000 memddi=5000 $END
 $BASIS
 GBASIS=df2tzvp !  Basis set name in the external file
 BASNAM=def2dt ! External file name, same as extbas in gms-files.*
 EXTFIL=.T. ! Tell gamess to look for an external file
 $END 
 $SCF DIRSCF=.TRUE. $END
 $DATA
128 water molecules
C1
H     1.0     8.56869984     3.22040296     0.09795000
H     1.0     7.03440809     2.99383092    -0.41337001
O     8.0     7.92788315     3.37285805    -0.65453100
H     1.0     0.74763501     3.13869309    -0.12185200
H     1.0    -0.31817800     3.54613304    -1.29013002
O     8.0     0.49208799     3.84272289    -0.78454000
H     1.0     5.08398104    -8.16460896     7.10526800
H     1.0     4.74131918    -6.58401585     6.87911987
O     8.0     4.35981512    -7.50834084     6.89310694
H     1.0    -0.08456800     7.61336184     7.77947092
H     1.0    -1.70250499     7.39661312     7.73326921
O     8.0    -0.91498601     7.77392483     7.24586010
H     1.0    -4.92916298    -2.81263208     8.81262398
H     1.0    -6.06032515    -3.97938704     8.65140438
O     8.0    -5.91112280    -2.99830508     8.77523899
H     1.0     7.09267902    -6.06217480     2.59388089
H     1.0     5.52568102    -5.66327715     2.36533904
O     8.0     6.16308308    -6.42065477     2.50751805
H     1.0     1.94701302     6.25715208     2.86678910
H     1.0     2.99928689     7.44191408     2.47195601
O     8.0     2.91461611     6.49285507     2.77565908
H     1.0    -2.27198410    -8.15178871    -3.82069302
H     1.0    -3.63706207    -9.04811096    -3.82329607
O     8.0    -2.64663911    -9.06924438    -3.68642807
H     1.0     2.77772403     9.09130955     0.94901299
H     1.0     2.48982811    10.46053886     0.10689600
O     8.0     2.65469193    10.08140469     1.01749694
H     1.0    -3.00094795    -4.32445478    -4.12166882
H     1.0    -2.88575292    -4.18108082    -5.74432421
O     8.0    -3.44368792    -3.96472502    -4.94306517
H     1.0     8.90103626     0.74845600     1.90363395
H     1.0     7.50007296    -0.08069800     1.77462196
O     8.0     7.90608120     0.80881202     1.98449695
H     1.0    -0.94045299     4.63610077    -9.32415104
H     1.0    -0.52708697     5.51308393   -10.63825321
O     8.0    -0.35374901     4.66737986   -10.13341999
H     1.0    -6.42560482     2.66165304    -8.95071125
H     1.0    -7.40752888     3.90833402    -8.56542110
O     8.0    -7.37530088     2.93696499    -8.80105305
H     1.0    -5.09687424     5.07778311     8.01282978
H     1.0    -3.64013004     4.94732285     8.73926830
O     8.0    -4.49204397     4.46884823     8.52614784
H     1.0    -5.95815086     9.12710094    -1.98840797
H     1.0    -6.38475084     8.60160923    -0.50223601
O     8.0    -5.78749514     9.22432995    -1.00782704
H     1.0    -0.34014300    -9.98515797     3.84427404
H     1.0     0.96955901    -9.75270557     2.89691806
O     8.0     0.49260199    -9.44541836     3.72044992
H     1.0     3.47059298     4.53281498     6.18027306
H     1.0     4.90486479     4.16138697     5.49344015
O     8.0     4.31433916     4.90907717     5.79734182
H     1.0     6.08724403    -5.00551796    -4.68272305
H     1.0     6.16116810    -6.62156820    -4.45966911
O     8.0     5.55939484    -5.82286787    -4.45157003
H     1.0    -7.36680412    -0.22796100     6.20913982
H     1.0    -8.72738934    -0.80663502     6.90252399
O     8.0    -7.97623682    -1.01795995     6.27704000
H     1.0     7.20301580     6.29720211    -5.01071596
H     1.0     6.25431013     5.68197107    -6.18897009
O     8.0     6.35015392     6.41803598    -5.51879120
H     1.0     0.02434400    -7.09982109     8.15749741
H     1.0     0.33625600    -8.70037174     8.24573231
O     8.0     0.72869498    -7.80157995     8.05007172
H     1.0    -3.89224505    -3.40218997     6.56452513
H     1.0    -4.88685703    -3.04028010     5.32089996
O     8.0    -4.63945293    -2.81026006     6.26217604
H     1.0     5.73129320    -6.62837410     4.69711208
H     1.0     5.05720615    -5.21665096     5.16560221
O     8.0     5.78968906    -5.63252306     4.62649393
H     1.0    -6.23518515     5.60626888     3.79067111
H     1.0    -6.34333992     6.93805504     4.72954416
O     8.0    -6.39901876     6.59281397     3.79262090
H     1.0     6.09061193    -2.64087701    -0.83583599
H     1.0     6.12487793    -2.29592800     0.75999397
O     8.0     5.85537481    -2.97487712     0.07697500
H     1.0    -2.11355090    -4.89228106    -8.83791733
H     1.0    -0.51450300    -5.06904697    -8.55749607
O     8.0    -1.38027501    -5.55403423    -8.68137360
H     1.0    -1.62150502     3.61605597    -3.09438396
H     1.0    -2.36094499     5.00083685    -3.54432607
O     8.0    -2.24473095     4.34130621    -2.80160689
H     1.0     3.93591499     3.46108007    -1.72527099
H     1.0     3.45541811     3.96543193    -0.24825101
O     8.0     4.11391020     4.11135197    -0.98663598
H     1.0    -0.68518001    -4.48515415    -1.28414798
H     1.0     0.59201902    -5.47576523    -1.51714897
O     8.0     0.29838300    -4.52141523    -1.46136403
H     1.0    -5.42232323    -2.88203406    -6.51582718
H     1.0    -5.17441320    -1.27762902    -6.33901691
O     8.0    -5.45136881    -2.11740899    -5.87191582
H     1.0     7.26325178     7.75539303     0.05021800
H     1.0     7.55810118     8.06117821    -1.52661300
O     8.0     6.98277617     7.55052614    -0.88758701
H     1.0    -4.81575584    -4.21196890    -9.55686188
H     1.0    -6.14409018    -4.69593716    -8.73946285
O     8.0    -5.19034815    -4.40851402    -8.65067863
H     1.0    -1.01518297    -1.26184595     5.29407406
H     1.0    -0.47281101    -0.67015302     6.71624422
O     8.0    -0.21637700    -0.90513402     5.77861691
H     1.0    -0.60336399    -4.61783409    -3.96807408
H     1.0     0.27394101    -5.96314192    -3.67257690
O     8.0    -0.64786297    -5.60663509    -3.82521296
H     1.0    -9.53950024    -2.96083903    -3.16995001
H     1.0   -10.80387402    -3.99437404    -3.17112303
O     8.0    -9.80741405    -3.92318606    -3.21715093
H     1.0    -6.94903278    -6.85923195     1.70043194
H     1.0    -7.88189411    -5.55709505     1.38255596
O     8.0    -7.45593500    -6.09909010     2.10706711
H     1.0     9.57256413     1.91814303     5.58603716
H     1.0     8.31616783     2.33006096     4.62758589
O     8.0     8.57840824     1.88362896     5.48318291
H     1.0    -0.24590200    -3.80212998     9.25754833
H     1.0    -0.32495600    -5.40479088     9.56097126
O     8.0    -0.84977603    -4.59873199     9.28719807
H     1.0     0.28158301     5.61363077     5.05230713
H     1.0    -1.16923702     4.90976715     5.31024408
O     8.0    -0.67429501     5.77863693     5.29558992
H     1.0    -2.62299204    -8.50157166    -8.04712582
H     1.0    -3.96256089    -7.77150011    -7.46455812
O     8.0    -3.34536195    -7.83993578    -8.24845886
H     1.0    -1.78206205     2.71715498     9.83892059
H     1.0    -3.38159108     2.75172901     9.51158619
O     8.0    -2.61203098     3.27356911     9.87979794
H     1.0    -3.12573791    -4.90420294    -1.08315504
H     1.0    -3.68028307    -5.61051893     0.28082100
O     8.0    -3.58960509    -4.74485016    -0.21163300
H     1.0     1.42102003     0.40115201    -2.46987200
H     1.0     2.13385010     0.44314301    -1.00121701
O     8.0     1.94011700    -0.12825701    -1.79876804
H     1.0    -3.34883904     8.42790031     1.37802505
H     1.0    -2.21452188     8.04255581     0.26821801
O     8.0    -3.18715596     8.22527599     0.41214800
H     1.0     8.01372147    -1.01229000    -0.23333400
H     1.0     7.67635012     0.23287700    -1.23461998
O     8.0     7.53259516    -0.74258900    -1.06753695
H     1.0    -1.40762699    -6.46928692     0.29903701
H     1.0    -1.25861394    -5.66915321     1.71481204
O     8.0    -1.72125697    -6.42260885     1.24749601
H     1.0     0.54701298    -4.47601223     0.70112199
H     1.0     1.07474804    -6.02067804     0.74946898
O     8.0     1.35131395    -5.06655598     0.63423300
H     1.0    -7.72870111    -3.63549995    -4.25022697
H     1.0    -6.44032097    -4.38109922    -4.92178917
O     8.0    -7.31398201    -4.52195215    -4.45596313
H     1.0    -5.23299122     4.55526400    -5.49055576
H     1.0    -3.76656890     3.84256911    -5.39832211
O     8.0    -4.73546505     3.74966598    -5.16869497
H     1.0     4.79900599    -3.52093911     9.85949898
H     1.0     5.83312321    -4.67519808     9.34459591
O     8.0     5.71210194    -3.69315791     9.48975277
H     1.0     4.06659794    -1.46508706    -0.70918202
H     1.0     2.79111910    -2.17263103    -1.44360101
O     8.0     3.74452209    -1.89178300    -1.55435300
H     1.0    -0.08426600     1.86390400     2.28309393
H     1.0    -1.33188605     0.99442500     1.68787503
O     8.0    -0.88463598     1.31445003     2.52314210
H     1.0     0.92684197    -1.83147204    -4.91305923
H     1.0     1.47998905    -3.31726289    -4.52153492
O     8.0     1.73026896    -2.35505009    -4.62935495
H     1.0     3.43145609    -9.88334179    -0.64276701
H     1.0     4.44410276   -10.18103600    -1.88886404
O     8.0     4.02379084    -9.46499825    -1.33141994
H     1.0     1.45737600    -1.50108695     1.24461102
H     1.0     0.25171000    -1.69149899     2.32948303
O     8.0     1.15526295    -2.01458311     2.04783297
H     1.0    -4.19102192    -7.49359894     1.93043005
H     1.0    -4.85325813    -6.13014984     2.53811908
O     8.0    -3.99663901    -6.57698584     2.27993107
H     1.0    -1.39754796   -11.89025593    -0.46767700
H     1.0    -0.76385897   -11.18334866     0.86106497
O     8.0    -0.63181102   -11.35177517    -0.11582500
H     1.0     7.62402010    -8.66102123     2.38802290
H     1.0     8.21929932    -7.91103601     3.71089911
O     8.0     8.23528862    -7.93857479     2.71134710
H     1.0    -2.23616505     1.50708401    -0.79162300
H     1.0    -0.68413198     1.10438001    -0.48201099
O     8.0    -1.60865402     0.74806798    -0.61772400
H     1.0     3.26480293    -4.66872215     3.79785705
H     1.0     1.89757597    -3.95490003     4.33450079
O     8.0     2.74061203    -3.81721401     3.81445193
H     1.0     2.63177705    -8.31269741    -5.28881979
H     1.0     3.35130692    -6.88331223    -4.96328688
O     8.0     2.88930702    -7.67477989    -4.56297112
H     1.0    -2.90520191     9.87327385    -1.55736601
H     1.0    -3.05882692     8.60299587    -2.57207203
O     8.0    -2.49064207     9.01482201    -1.85955298
H     1.0     9.80489540     2.84978104     2.29693794
H     1.0     8.94539261     4.18131018     2.69079494
O     8.0     9.85826492     3.77314091     2.67729807
H     1.0    -0.28717801    -8.11878300    -4.80631781
H     1.0    -1.27837896    -8.04003143    -6.10175419
O     8.0    -0.68594402    -7.51154613    -5.49360609
H     1.0    -6.56101894     0.78845102    -3.91068006
H     1.0    -5.36450291    -0.30058801    -4.13244200
O     8.0    -6.26760912    -0.15037000    -3.73001099
H     1.0     8.24310398    -6.52461386    -3.04799104
H     1.0     8.12740135    -8.12316132    -3.36119390
O     8.0     8.75903320    -7.35422421    -3.26172495
H     1.0    -1.57652903     1.48907900    -3.70690608
H     1.0    -2.02562594    -0.07933700    -3.63466907
O     8.0    -1.50427198     0.59761399    -4.15432692
H     1.0    -0.01819100    -2.32962298    -6.84819984
H     1.0     1.57533395    -2.16911411    -7.16718483
O     8.0     0.81083000    -2.81275201    -7.13002777
H     1.0     3.13778591    -3.94610000     0.01256900
H     1.0     4.24229908    -4.79626799    -0.83837199
O     8.0     3.95300889    -3.87947607    -0.56283402
H     1.0    -8.84403706    -1.13230598    -7.55406094
H     1.0    -8.40149117    -0.88771600    -6.00126886
O     8.0    -9.10971928    -1.26365697    -6.59892988
H     1.0    -5.60560799    -0.66662103    -9.02467060
H     1.0    -4.24265718    -1.53775597    -9.24900627
O     8.0    -5.24188519    -1.57481694    -9.23204422
H     1.0     1.63184297    -4.02687979     7.39474916
H     1.0     0.57973999    -4.09666395     6.14773417
O     8.0     0.83487499    -3.59373999     6.97362185
H     1.0     5.79548120     4.03284502    -2.96911097
H     1.0     5.41948986     2.46691608    -3.23991108
O     8.0     6.16938591     3.11911011    -3.12847900
H     1.0    -8.95224476     3.82396293     0.49089301
H     1.0   -10.14107609     3.79775095     1.61019194
O     8.0    -9.83375072     4.21545076     0.75509202
H     1.0    -5.08696318    -0.82222497    10.00397778
H     1.0    -4.54099703     0.38347700     9.04740047
O     8.0    -4.86780691     0.15270300     9.96394634
H     1.0    -0.82049698     9.65986919     3.94025207
H     1.0     0.03823600    10.52283192     2.85180807
O     8.0    -0.88170099    10.25804043     3.14115191
H     1.0     6.28597116    -8.55727291    -2.20080090
H     1.0     7.62662220    -9.12793446    -1.46334696
O     8.0     6.62663221    -9.12570286    -1.45183206
H     1.0    -4.77723980     0.08263200    -0.70220900
H     1.0    -3.92412210    -1.30549502    -0.81233698
O     8.0    -4.14312696    -0.44326001    -1.26917899
H     1.0    -5.39862490     2.19861197     3.18031907
H     1.0    -6.23668480     3.00185990     2.03171802
O     8.0    -5.49159479     2.35562110     2.19704795
H     1.0     5.19477177     6.04451323     7.48256016
H     1.0     5.44472504     5.66458321     9.05100346
O     8.0     5.69538021     5.44580793     8.10790825
H     1.0     1.35298097    -5.02424288    -6.91735601
H     1.0     0.03066000    -5.29178286    -5.99717903
O     8.0     0.87014699    -4.75525904    -6.08390903
H     1.0    -5.70594692    -7.90908289    -4.35397482
H     1.0    -6.35670424    -6.45692301    -3.98711896
O     8.0    -5.53530788    -7.02361012    -3.92161298
H     1.0    -3.97529602     3.28607607     5.79450703
H     1.0    -4.77544594     4.68479776     5.52960587
O     8.0    -3.95509911     4.27666283     5.93032312
H     1.0     8.28260994    -0.34912100     5.85930109
H     1.0     9.89317226    -0.61914498     5.85558414
O     8.0     8.99242496    -1.05358899     5.86130095
H     1.0     4.02772617    -6.48455715    -2.88922501
H     1.0     2.80344105    -5.40384388    -2.88461995
O     8.0     3.79768491    -5.51137400    -2.87868810
H     1.0     1.83770096    10.25471687     4.96799994
H     1.0     1.56251204     8.66109562     4.74110603
O     8.0     2.26860404     9.35776997     4.86837292
H     1.0    -7.98840189    -4.42862511     3.84810805
H     1.0    -9.37724590    -3.92212892     4.54194593
O     8.0    -8.81485558    -4.72124195     4.32921696
H     1.0   -10.06109142     2.62005901    -5.43688393
H     1.0    -9.18563557     1.57211804    -6.33255911
O     8.0   -10.09872341     1.94958997    -6.17794514
H     1.0     1.83964300    -7.71660709    -1.73227096
H     1.0     2.99346304    -7.66496611    -0.57777202
O     8.0     2.01381898    -7.57527685    -0.75769103
H     1.0    -2.53531194     4.07184219     2.14594793
H     1.0    -3.65549111     4.81069088     3.07661295
O     8.0    -3.20567107     4.81301022     2.18343091
H     1.0     3.41541409     9.43090916    -1.83909905
H     1.0     4.27972984    10.76805687    -2.20218301
O     8.0     4.27507305     9.76822376    -2.22292399
H     1.0    -4.74105501    -7.96578503     4.74216604
H     1.0    -4.48418522    -6.95265722     5.99692583
O     8.0    -4.93180180    -7.05500412     5.10851097
H     1.0    -9.35860443    -1.21017396     2.19561696
H     1.0    -9.35010433    -2.83696890     2.05312896
O     8.0    -8.79969883    -2.00669098     1.96474397
H     1.0     7.32063103    -2.50829005     7.30394316
H     1.0     7.83883095    -3.71925807     8.26927185
O     8.0     7.47421980    -3.49456096     7.36556482
H     1.0    -9.42536068    -5.66630697    -1.20636201
H     1.0    -8.49203110    -6.84000206    -1.85302305
O     8.0    -8.48493862    -5.95971918    -1.37850296
H     1.0    -1.26279998     8.48182297    -3.86233401
H     1.0    -0.12313600     9.53869247    -3.36130500
O     8.0    -0.28824699     8.70476627    -3.88801408
H     1.0     2.37800002     2.85048890     2.52500606
H     1.0     3.20941901     3.87650895     3.48566294
O     8.0     2.50321007     3.16873097     3.46477294
H     1.0    -9.35825634    -7.49901485     0.07268400
H     1.0    -8.11450958    -8.55571079     0.13035600
O     8.0    -8.37035561    -7.59128809     0.19780900
H     1.0    -6.55359697    -4.76729202    -0.74478501
H     1.0    -6.24892902    -6.06947803    -1.68197501
O     8.0    -5.83868122    -5.37498093    -1.09079897
H     1.0     4.53136396     8.81211185     4.73523283
H     1.0     3.65394902     7.44273520     4.88283682
O     8.0     4.51884699     7.82754183     4.56035614
H     1.0     5.34421921     9.83359432     1.53487098
H     1.0     6.88470221     9.51794910     1.97545803
O     8.0     6.20697212     9.41783619     1.24691296
H     1.0     3.64996409     4.30593204     9.25585365
H     1.0     2.31451607     5.23956919     9.36418056
O     8.0     2.65137792     4.29952908     9.30971622
H     1.0    -0.02307100    -9.86202812    -6.18093777
H     1.0     1.34776402   -10.08971119    -5.32314491
O     8.0     0.46705601   -10.49010181    -5.57644176
H     1.0     9.14042664    -3.29560208    -2.72752094
H     1.0    10.68417645    -2.96630812    -2.30890608
O     8.0    10.08358860    -3.62651491    -2.76005912
H     1.0    -7.70059490     3.93160892    -5.64806080
H     1.0    -8.69804287     5.13012218    -6.13334608
O     8.0    -7.74329185     4.87240124    -5.98451900
H     1.0    -4.01159716     1.71826506    -3.97441411
H     1.0    -3.82418203     1.76095998    -2.35272098
O     8.0    -4.08685923     1.18852401    -3.12953210
H     1.0    -6.56772423   -10.04135704    -0.22263800
H     1.0    -4.94492197   -10.09685802    -0.04865800
O     8.0    -5.77827883    -9.61107826     0.21525700
H     1.0    -5.27566481     6.07109213    -7.62721682
H     1.0    -4.28271294     4.77463722    -7.63665295
O     8.0    -5.23759508     5.07176495    -7.63087082
H     1.0    -0.51563197    10.37524319     5.99927998
H     1.0    -2.13163590    10.14311981     6.03781986
O     8.0    -1.25008202     9.80506897     6.36751986
H     1.0    -3.48497605    -7.89504194    -1.33565199
H     1.0    -2.50839400    -9.11313057    -0.85671198
O     8.0    -3.39766502    -8.88801193    -1.25500405
H     1.0     3.43016601     0.42433399     7.55064821
H     1.0     4.44897079    -0.46875399     8.46238613
O     8.0     4.24946022     0.45074600     8.12351513
H     1.0    -5.14529991    -2.56821394     2.09833503
H     1.0    -4.30910778    -2.89285803     0.73370099
O     8.0    -4.42054701    -3.12972593     1.69889104
H     1.0    -0.06474900     3.74036098     7.96038580
H     1.0    -0.02993800     4.92127800     9.08779812
O     8.0     0.47109100     4.14743519     8.70017147
H     1.0     5.28872108     3.50934792     1.29009700
H     1.0     4.92054605     1.93841600     1.54199898
O     8.0     5.33145809     2.75571609     1.94609106
H     1.0     9.89155102     4.41452980    -3.08391690
H     1.0     9.39699078     5.63377190    -2.11660409
O     8.0     9.55335903     4.64757299    -2.17208695
H     1.0     9.76402664     2.02151394    -5.45215607
H     1.0    10.27917957     3.52794909    -5.08869123
O     8.0     9.85404396     2.69993711    -4.72293997
H     1.0     4.95729685     4.19458103    -8.32860088
H     1.0     5.90329313     5.51628304    -8.48681164
O     8.0     5.08110619     5.14784479    -8.05278397
H     1.0    -6.64373684     3.81733203    -1.10854995
H     1.0    -5.45810699     2.69985604    -0.99735898
O     8.0    -6.43693590     2.83965611    -1.14725304
H     1.0     7.40420914    -6.46192312    -0.54705399
H     1.0     6.37620687    -5.25744581    -0.14795201
O     8.0     7.33268595    -5.54942322    -0.14413400
H     1.0     3.65355110     1.45661700    10.06931496
H     1.0     2.44233894     2.40779305    10.61251354
O     8.0     3.39698291     2.39145398    10.31501484
H     1.0    -4.39455795     0.46171501     4.68971491
H     1.0    -5.58179188    -0.47614601     4.07511806
O     8.0    -4.60694504    -0.43173701     4.29379606
H     1.0     0.23822200     0.14230400     9.97892284
H     1.0     1.86295199    -0.01570700    10.02496243
O     8.0     0.99427199    -0.51114601    10.01776123
H     1.0     3.90587211    -2.39326096     2.30907106
H     1.0     4.91314316    -3.49823594     2.96578407
O     8.0     4.85730982    -2.59366488     2.54299402
H     1.0     4.12508678    -7.68428707    -7.21144199
H     1.0     2.89209890    -7.43653297    -8.25316811
O     8.0     3.85255003    -7.70354986    -8.17345524
H     1.0     0.10609500    -6.03138590     4.27954102
H     1.0     1.06207502    -6.11546516     2.95822811
O     8.0     1.03397202    -6.21212721     3.95320797
H     1.0    -0.93330199    -1.61968100    -2.36851192
H     1.0     0.44519100    -2.38716412    -2.78989601
O     8.0    -0.37002501    -2.43112206    -2.21230793
H     1.0   -10.46500492    -5.14034605     2.78135800
H     1.0   -10.06002426    -5.85137510     1.36811197
O     8.0   -10.58132362    -5.10870314     1.78859198
H     1.0     8.99538136    -6.21503210     1.50005102
H     1.0    10.43828583    -5.72419119     0.91358900
O     8.0     9.44655991    -5.65619993     0.80416203
 $END
