!   File created by MacMolPlt 7.7.3
 $CONTRL SCFTYP=rhf RUNTYP=ENERGY MAXIT=10 $END
 $contrl ispher=1 $end
 $contrl icharg=0 mult=1 $end
 $CONTRL NPRINT=-5 $END
 $SYSTEM mwords=5000 memddi=5000 $END
 $BASIS GBASIS=CCT $END
 $SCF DIRSCF=.TRUE. $END
 $DATA
44A
C1
C 6.0 0.666194 0.000768 0.000345
H 1.0 1.228675 -0.512926 0.766867
H 1.0 1.227829 0.514165 -0.767002
C 6.0 -0.666180 -0.000069 0.000220
H 1.0 -1.228128 -0.514542 0.766711
H 1.0 -1.228391 0.512603 -0.767140
 $END
