!   File created by MacMolPlt 7.7.3
 $CONTRL SCFTYP=rhf RUNTYP=ENERGY MAXIT=1 $END
 $contrl ispher=1 $end
 $contrl icharg=0 mult=1 $end
 $CONTRL NPRINT=-5 $END
 $SYSTEM mwords=5000 memddi=5000 $END
 $BASIS
 GBASIS=df2svpd !  Basis set name in the external file
 BASNAM=def2dt ! External file name, same as extbas in gms-files.*
 EXTFIL=.T. ! Tell gamess to look for an external file
 $END
 $SCF DIRSCF=.TRUE. $END
 $DATA
34B
C1
C 6.0 2.533566 0.301302 -0.012854
H 1.0 2.568151 0.901109 -0.922180
H 1.0 2.564069 0.984509 0.835890
H 1.0 3.434247 -0.310195 0.017355
C 6.0 1.271740 -0.550585 0.026450
H 1.0 1.266296 -1.160313 0.932947
H 1.0 1.270609 -1.249939 -0.813131
C 6.0 -0.000035 0.285514 -0.019167
H 1.0 -0.000190 0.987824 0.819818
H 1.0 0.000042 0.894291 -0.928236
C 6.0 -1.271796 -0.550628 0.026105
H 1.0 -1.266414 -1.160737 0.932355
H 1.0 -1.270690 -1.249651 -0.813759
C 6.0 -2.533515 0.301419 -0.012873
H 1.0 -2.567708 0.901952 -0.921749
H 1.0 -3.434317 -0.309880 0.016640
H 1.0 -2.564055 0.984005 0.836389
 $END
