!   File created by MacMolPlt 7.7.3
 $CONTRL SCFTYP=rhf RUNTYP=ENERGY MAXIT=10 $END
 $contrl ispher=1 $end
 $contrl icharg=0 mult=1 $end
 $CONTRL NPRINT=-5 $END
 $SYSTEM mwords=5000 memddi=5000 $END
 $BASIS GBASIS=CCT $END
 $SCF DIRSCF=.TRUE. $END
 $DATA
56
C1
C 6.0 0.965856 1.273198 -1.398379
H 1.0 1.555489 2.176853 -1.470705
C 6.0 1.591728 0.028036 -1.436324
H 1.0 2.666684 -0.034570 -1.534814
C 6.0 0.831559 -1.137044 -1.341821
H 1.0 1.317460 -2.102667 -1.365605
C 6.0 -0.554012 -1.056515 -1.211535
H 1.0 -1.143161 -1.960345 -1.137881
C 6.0 -1.179871 0.188578 -1.174839
H 1.0 -2.254692 0.250609 -1.073378
C 6.0 -0.419921 1.353307 -1.266991
H 1.0 -0.905195 2.319316 -1.237494
N 7.0 0.548605 -0.037811 2.135687
H 1.0 0.683223 0.006230 1.132615
H 1.0 0.690098 0.907336 2.468159
C 6.0 -0.827494 -0.444194 2.413122
H 1.0 -0.985371 -0.472741 3.489678
H 1.0 -1.598797 0.196187 1.973003
H 1.0 -0.982186 -1.453762 2.037501
 $END
