!   File created by MacMolPlt 7.7.3
 $CONTRL SCFTYP=rhf RUNTYP=ENERGY MAXIT=1 $END
 $contrl ispher=1 $end
 $contrl icharg=0 mult=1 $end
 $CONTRL NPRINT=-5 $END
 $SYSTEM mwords=5000 memddi=5000 $END
 $BASIS
 GBASIS=df2svpd !  Basis set name in the external file
 BASNAM=def2dt ! External file name, same as extbas in gms-files.*
 EXTFIL=.T. ! Tell gamess to look for an external file
 $END
 $SCF DIRSCF=.TRUE. $END
 $DATA
07a
C1
N 7.0 -1.951784 0.561067 0.000000
N 7.0 -0.033329 2.023689 0.000000
N 7.0 1.202121 -1.346379 0.000000
N 7.0 2.043244 0.739745 0.000000
N 7.0 -1.815491 -1.757388 0.000000
C 6.0 -1.337578 1.763246 0.000000
C 6.0 0.188216 -0.416977 0.000000
C 6.0 2.296733 -0.604293 0.000000
C 6.0 0.678168 0.888726 0.000000
C 6.0 -1.212826 -0.560267 0.000000
H 1.0 -2.007237 2.613998 0.000000
H 1.0 3.302141 -0.990778 0.000000
H 1.0 2.717433 1.486935 0.000000
H 1.0 -2.827788 -1.821739 0.000000
H 1.0 -1.242022 -2.579585 0.000000
 $END
