!   File created by MacMolPlt 7.7.3
 $CONTRL SCFTYP=rhf RUNTYP=ENERGY MAXIT=1 $END
 $contrl ispher=1 $end
 $contrl icharg=0 mult=1 $end
 $CONTRL NPRINT=-5 $END
 $SYSTEM mwords=5000 memddi=5000 $END
 $BASIS
 GBASIS=df2svpd !  Basis set name in the external file
 BASNAM=def2dt ! External file name, same as extbas in gms-files.*
 EXTFIL=.T. ! Tell gamess to look for an external file
 $END
 $SCF DIRSCF=.TRUE. $END
 $DATA
06B
C1
N 7.0 -0.422153 0.814216 -0.022028
H 1.0 -0.051533 1.321992 0.771105
H 1.0 -0.051410 1.278554 -0.841286
C 6.0 0.055599 -0.571818 0.015434
H 1.0 -0.336286 -1.105843 -0.846758
H 1.0 1.142310 -0.678553 0.018468
H 1.0 -0.336527 -1.058548 0.905066
 $END
