!   File created by MacMolPlt 7.7.3
 $CONTRL SCFTYP=rhf RUNTYP=ENERGY MAXIT=10 $END
 $contrl ispher=1 $end
 $contrl icharg=0 mult=1 $end
 $CONTRL NPRINT=-5 $END
 $SYSTEM mwords=5000 memddi=5000 $END
 $BASIS GBASIS=N311 NGAUSS=6 NDFUNC=3 NFFUNC=1 NPFUNC=3 $END
 $SCF DIRSCF=.TRUE. $END
 $DATA
10A
C1
N 7.0 0.359012 0.182101 -0.826972
H 1.0 1.187608 -0.402753 -0.877314
H 1.0 -0.302816 -0.207559 -1.485208
C 6.0 -0.201005 0.102583 0.520407
H 1.0 -1.095084 0.720429 0.581627
H 1.0 -0.465092 -0.904659 0.857912
H 1.0 0.517378 0.509859 1.229547
 $END
