!   File created by MacMolPlt 7.7.3
 $CONTRL SCFTYP=rhf RUNTYP=ENERGY MAXIT=1 $END
 $contrl ispher=1 $end
 $contrl icharg=0 mult=1 $end
 $CONTRL NPRINT=-5 $END
 $SYSTEM mwords=5000 memddi=5000 $END
 $BASIS GBASIS=CCT $END
 $SCF DIRSCF=.TRUE. $END
 $DATA
02
C1
O 8.0 -1.655421 -0.123300 0.000000
O 8.0 1.246212 0.102689 0.000000
H 1.0 -0.704090 0.031932 0.000000
H 1.0 -2.038673 0.753723 0.000000
H 1.0 1.575986 -0.382521 -0.758561
H 1.0 1.575986 -0.382521 0.758561
 $END
