!   File created by MacMolPlt 7.7.3
 $CONTRL SCFTYP=rhf RUNTYP=ENERGY MAXIT=1 $END
 $contrl ispher=1 $end
 $contrl icharg=-1 mult=1 $end
 $CONTRL NPRINT=-5 $END
 $SYSTEM mwords=5000 memddi=5000 $END
 $BASIS GBASIS=N311 NGAUSS=6 NDFUNC=3 NFFUNC=1 NPFUNC=3 $END
 $SCF DIRSCF=.TRUE. $END
 $DATA
1b
C1
H 1.0 -4.912587 -1.981645 0.534995
O 8.0 -4.198351 -1.470500 0.122066
C 6.0 -4.133261 -1.843263 -1.262377
H 1.0 -5.094820 -1.665690 -1.760008
H 1.0 -3.869753 -2.903941 -1.375136
C 6.0 -3.056086 -1.026869 -1.937438
H 1.0 -2.990149 -1.345649 -2.985633
O 8.0 -3.390903 0.386671 -1.907848
C 6.0 -2.232957 1.171297 -1.709257
H 1.0 -2.148152 1.931153 -2.489140
N 7.0 -2.375603 1.910192 -0.412697
C 6.0 -3.393285 1.645515 0.469760
H 1.0 -4.026548 0.811735 0.191014
C 6.0 -3.578905 2.366506 1.603892
H 1.0 -4.391879 2.133985 2.278532
C 6.0 -2.695057 3.456453 1.924878
O 8.0 -2.761972 4.205283 2.904890
N 7.0 -1.652899 3.619255 0.993792
H 1.0 -0.992861 4.372164 1.170551
C 6.0 -1.433317 2.901143 -0.163379
O 8.0 -0.513809 3.149087 -0.943837
C 6.0 -1.662665 -1.113913 -1.309602
H 1.0 -1.717508 -1.198997 -0.220814
C 6.0 -1.030086 0.215376 -1.745174
H 1.0 -0.204623 0.548361 -1.111008
O 8.0 -0.608269 0.130260 -3.111104
H 1.0 -0.482432 -0.821033 -3.297227
O 8.0 -0.986168 -2.247824 -1.861481
P 15.0 0.031863 -3.161535 -0.925713
O 8.0 0.352019 -4.342949 -1.787766
O 8.0 -0.528232 -3.277952 0.457190
O 8.0 1.347945 -2.204927 -0.753649
C 6.0 2.106846 -1.777877 -1.901370
H 1.0 1.467914 -1.209161 -2.583066
H 1.0 2.514822 -2.646732 -2.430508
C 6.0 3.234149 -0.889302 -1.412436
H 1.0 3.796595 -0.526592 -2.278707
O 8.0 2.663837 0.268858 -0.725773
C 6.0 3.155551 0.341327 0.609535
H 1.0 3.928781 1.105980 0.712447
N 7.0 2.061381 0.753103 1.495934
C 6.0 0.923085 -0.018260 1.564204
H 1.0 0.919221 -0.875147 0.897486
C 6.0 -0.113723 0.271471 2.384762
H 1.0 -0.990484 -0.361189 2.420180
C 6.0 -0.045641 1.426997 3.245920
O 8.0 -0.901416 1.796376 4.053746
N 7.0 1.133550 2.175383 3.086489
H 1.0 1.226497 3.006692 3.664960
C 6.0 2.204381 1.916617 2.254510
O 8.0 3.199253 2.637173 2.215863
C 6.0 4.195983 -1.556147 -0.418590
H 1.0 4.178200 -2.645158 -0.492688
C 6.0 3.705435 -1.060917 0.946926
H 1.0 2.891187 -1.701237 1.294875
O 8.0 4.713272 -1.052354 1.940837
H 1.0 5.547919 -0.897744 1.450763
O 8.0 5.541318 -1.066329 -0.581846
H 1.0 6.073398 -1.763577 -0.995724
 $END
