!   File created by MacMolPlt 7.7.3
 $CONTRL SCFTYP=rhf RUNTYP=ENERGY MAXIT=10 $END
 $contrl ispher=1 $end
 $contrl icharg=0 mult=1 $end
 $CONTRL NPRINT=-5 $END
 $SYSTEM mwords=5000 memddi=5000 $END
 $BASIS GBASIS=CCD $END
 $SCF DIRSCF=.TRUE. $END
 $DATA
12a
C1
C 6.0 -1.130650 0.696138 0.000000
C 6.0 -1.130650 -0.696138 0.000000
C 6.0 1.130650 -0.696138 0.000000
C 6.0 1.130650 0.696138 0.000000
N 7.0 0.000000 -1.414479 0.000000
N 7.0 0.000000 1.414479 0.000000
H 1.0 -2.062480 1.247279 0.000000
H 1.0 -2.062480 -1.247279 0.000000
H 1.0 2.062480 -1.247279 0.000000
H 1.0 2.062480 1.247279 0.000000
 $END
