!   File created by MacMolPlt 7.7.3
 $CONTRL SCFTYP=rhf RUNTYP=ENERGY MAXIT=1 $END
 $contrl ispher=1 $end
 $contrl icharg=0 mult=1 $end
 $CONTRL NPRINT=-5 $END
 $SYSTEM mwords=5000 memddi=5000 $END
 $BASIS
 GBASIS=df2tzvp !  Basis set name in the external file
 BASNAM=def2dt ! External file name, same as extbas in gms-files.*
 EXTFIL=.T. ! Tell gamess to look for an external file
 $END
 $SCF DIRSCF=.TRUE. $END
 $DATA
39
C1
C 6.0 0.763018 0.869142 -1.879931
H 1.0 1.434949 1.680904 -1.635819
C 6.0 1.235126 -0.441941 -1.907034
H 1.0 2.273232 -0.647641 -1.683210
C 6.0 0.369710 -1.487639 -2.223653
H 1.0 0.735661 -2.505183 -2.243866
C 6.0 -0.967460 -1.222074 -2.514043
H 1.0 -1.638987 -2.033663 -2.758695
C 6.0 -1.439592 0.089303 -2.487645
H 1.0 -2.477211 0.295200 -2.712389
C 6.0 -0.574434 1.134922 -2.170109
H 1.0 -0.940226 2.152608 -2.149844
C 6.0 -0.765980 -0.725876 1.358906
H 1.0 -0.872234 -0.550927 0.286599
H 1.0 -1.417618 -1.555140 1.632057
C 6.0 0.703561 -0.982939 1.703036
H 1.0 1.198792 -1.620525 0.972452
H 1.0 0.766840 -1.483153 2.670503
C 6.0 1.343698 0.422457 1.793989
H 1.0 1.993966 0.615128 0.942136
H 1.0 1.956565 0.511627 2.689714
C 6.0 0.164652 1.421634 1.820861
H 1.0 0.047500 1.880605 0.838575
H 1.0 0.310245 2.223139 2.543259
C 6.0 -1.069120 0.564539 2.116510
H 1.0 -2.000108 1.040276 1.810597
H 1.0 -1.134546 0.355218 3.187045
 $END
