!   File created by MacMolPlt 7.7.3
 $CONTRL SCFTYP=rhf RUNTYP=ENERGY MAXIT=1 $END
 $contrl ispher=1 $end
 $contrl icharg=0 mult=1 $end
 $CONTRL NPRINT=-5 $END
 $SYSTEM mwords=5000 memddi=5000 $END
 $BASIS GBASIS=N311 NGAUSS=6 NDFUNC=3 NFFUNC=1 NPFUNC=3 $END
 $SCF DIRSCF=.TRUE. $END
 $DATA
20b
C1
C 6.0 -1.208187 -0.697547 0.000000
C 6.0 -1.208187 0.697547 0.000000
C 6.0 0.000000 1.395094 0.000000
C 6.0 1.208187 0.697547 0.000000
C 6.0 1.208187 -0.697547 0.000000
C 6.0 0.000000 -1.395094 0.000000
H 1.0 -2.144027 -1.237855 0.000000
H 1.0 -2.144027 1.237855 0.000000
H 1.0 0.000000 2.475710 0.000000
H 1.0 2.144027 1.237855 0.000000
H 1.0 2.144027 -1.237855 0.000000
H 1.0 0.000000 -2.475710 0.000000
 $END
