!   File created by MacMolPlt 7.7.3
 $CONTRL SCFTYP=rhf RUNTYP=ENERGY MAXIT=1 $END
 $contrl ispher=1 $end
 $contrl icharg=0 mult=1 $end
 $CONTRL NPRINT=-5 $END
 $SYSTEM mwords=5000 memddi=5000 $END
 $BASIS
 GBASIS=df2svpd !  Basis set name in the external file
 BASNAM=def2dt ! External file name, same as extbas in gms-files.*
 EXTFIL=.T. ! Tell gamess to look for an external file
 $END
 $SCF DIRSCF=.TRUE. $END
 $DATA
octane1
C1
C 6.0 0.000000 0.000000 -0.782166
C 6.0 0.000000 0.000000 0.782166
C 6.0 1.136859 -0.865731 -1.336797
C 6.0 0.181315 1.417414 -1.336797
C 6.0 -1.318174 -0.551683 -1.336797
C 6.0 1.136859 0.865731 1.336797
C 6.0 0.181315 -1.417414 1.336797
C 6.0 -1.318174 0.551683 1.336797
H 1.0 2.101378 -0.606324 -0.896025
H 1.0 0.956403 -1.928128 -1.165636
H 1.0 1.216425 -0.715059 -2.416381
H 1.0 1.191606 1.792333 -1.165636
H 1.0 0.011047 1.410984 -2.416381
H 1.0 -0.525597 2.123008 -0.896025
H 1.0 -1.575781 -1.516684 -0.896025
H 1.0 -2.148009 0.135794 -1.165636
H 1.0 -1.227472 -0.695925 -2.416381
H 1.0 2.101378 0.606324 0.896025
H 1.0 0.956403 1.928128 1.165636
H 1.0 1.216425 0.715059 2.416381
H 1.0 1.191606 -1.792333 1.165636
H 1.0 0.011047 -1.410984 2.416381
H 1.0 -0.525597 -2.123008 0.896025
H 1.0 -1.575781 1.516684 0.896025
H 1.0 -2.148009 -0.135794 1.165636
H 1.0 -1.227472 0.695925 2.416381
 $END
