!   File created by MacMolPlt 7.7.3
 $CONTRL SCFTYP=rhf RUNTYP=ENERGY MAXIT=1 $END
 $contrl ispher=1 $end
 $contrl icharg=0 mult=1 $end
 $CONTRL NPRINT=-5 $END
 $SYSTEM mwords=5000 memddi=5000 $END
 $BASIS
 GBASIS=df2svpd !  Basis set name in the external file
 BASNAM=def2dt ! External file name, same as extbas in gms-files.*
 EXTFIL=.T. ! Tell gamess to look for an external file
 $END
 $SCF DIRSCF=.TRUE. $END
 $DATA
64B
C1
C 6.0 -0.382052 0.542995 -0.034074
H 1.0 -0.386933 1.285169 0.751808
H 1.0 -1.030584 0.710763 -0.882758
C 6.0 0.386459 -0.543967 0.035735
H 1.0 1.031764 -0.715793 0.885863
H 1.0 0.381347 -1.279167 -0.756574
 $END
