!   File created by MacMolPlt 7.7.3
 $CONTRL SCFTYP=rhf RUNTYP=ENERGY MAXIT=10 $END
 $contrl ispher=1 $end
 $contrl icharg=-1 mult=1 $end
 $CONTRL NPRINT=-5 $END
 $SYSTEM mwords=5000 memddi=5000 $END
 $BASIS GBASIS=CCD $END
 $SCF DIRSCF=.TRUE. $END
 $DATA
3a
C1
H 1.0 -1.084997 4.728124 -2.109458
O 8.0 -1.336793 4.064156 -1.447900
C 6.0 -0.151875 3.687131 -0.731201
H 1.0 0.335209 4.567252 -0.293881
H 1.0 0.565867 3.182308 -1.392045
C 6.0 -0.523438 2.721938 0.370388
H 1.0 0.398930 2.396603 0.869475
O 8.0 -1.378256 3.377788 1.349611
C 6.0 -2.321108 2.460496 1.877988
H 1.0 -2.240155 2.411269 2.965206
N 7.0 -3.697546 2.964622 1.586104
C 6.0 -3.952073 3.811862 0.537254
H 1.0 -3.082259 4.082126 -0.053500
C 6.0 -5.195219 4.289138 0.271355
H 1.0 -5.363495 4.962513 -0.558809
C 6.0 -6.311076 3.913227 1.102540
O 8.0 -7.486689 4.278005 0.976988
N 7.0 -5.959222 3.042123 2.146489
H 1.0 -6.706338 2.743266 2.768536
C 6.0 -4.711365 2.537015 2.441975
O 8.0 -4.502016 1.777085 3.387609
C 6.0 -1.312088 1.482253 -0.057274
H 1.0 -2.013809 1.728911 -0.858850
C 6.0 -2.048228 1.091868 1.234452
H 1.0 -2.970328 0.528570 1.059779
O 8.0 -1.160710 0.362186 2.085681
H 1.0 -0.567524 -0.120307 1.473168
O 8.0 -0.404669 0.464294 -0.476698
P 15.0 -0.848484 -0.532610 -1.727971
O 8.0 -1.167513 0.315529 -2.923720
O 8.0 -1.808417 -1.567980 -1.227798
O 8.0 0.586093 -1.285817 -1.905549
C 6.0 1.696054 -0.542288 -2.459729
H 1.0 1.741358 0.454503 -2.011320
H 1.0 1.565332 -0.442410 -3.541919
C 6.0 2.980398 -1.291501 -2.183277
H 1.0 3.785703 -0.822115 -2.764579
O 8.0 3.307476 -1.208213 -0.770598
C 6.0 3.923430 -2.415299 -0.333170
H 1.0 4.911075 -2.213668 0.082084
N 7.0 3.128462 -2.973676 0.783594
C 6.0 1.756341 -3.011275 0.710189
H 1.0 1.333424 -2.580977 -0.192293
C 6.0 0.982488 -3.508562 1.704945
H 1.0 -0.095452 -3.525412 1.614415
C 6.0 1.596715 -4.005846 2.911081
O 8.0 1.016295 -4.480061 3.894605
N 7.0 2.995774 -3.896092 2.915997
H 1.0 3.478023 -4.225235 3.748691
C 6.0 3.813092 -3.402023 1.921568
O 8.0 5.036699 -3.346137 2.034846
C 6.0 2.948832 -2.791439 -2.494020
H 1.0 1.967485 -3.214505 -2.262674
C 6.0 4.021748 -3.353293 -1.544450
H 1.0 3.849495 -4.398762 -1.264905
O 8.0 5.314558 -3.187827 -2.128990
H 1.0 5.163636 -3.226427 -3.096456
O 8.0 3.270694 -2.993245 -3.872178
H 1.0 2.930455 -3.863157 -4.141399
 $END
