!   File created by MacMolPlt 7.7.3
 $CONTRL SCFTYP=rhf RUNTYP=ENERGY MAXIT=10 $END
 $contrl ispher=1 $end
 $contrl icharg=-1 mult=1 $end
 $CONTRL NPRINT=-5 $END
 $SYSTEM mwords=5000 memddi=5000 $END
 $BASIS
 GBASIS=df2tzvp !  Basis set name in the external file
 BASNAM=def2dt ! External file name, same as extbas in gms-files.*
 EXTFIL=.T. ! Tell gamess to look for an external file
 $END
 $SCF DIRSCF=.TRUE. $END
 $DATA
3b
C1
H 1.0 -1.234161 0.366935 -4.972862
O 8.0 -0.818493 -0.341691 -4.456781
C 6.0 -1.687750 -0.658453 -3.359801
H 1.0 -2.557130 -1.232404 -3.707658
H 1.0 -2.046657 0.253632 -2.865276
C 6.0 -0.924407 -1.460883 -2.331296
H 1.0 -1.609897 -1.702299 -1.508203
O 8.0 -0.439471 -2.708840 -2.914575
C 6.0 0.809935 -3.063423 -2.346063
H 1.0 0.764882 -4.068220 -1.923260
N 7.0 1.849168 -3.104665 -3.421938
C 6.0 1.691607 -2.438589 -4.610141
H 1.0 0.760080 -1.889316 -4.704321
C 6.0 2.627676 -2.473602 -5.593668
H 1.0 2.468660 -1.942820 -6.523191
C 6.0 3.842348 -3.230301 -5.415506
O 8.0 4.768656 -3.349213 -6.226977
N 7.0 3.913781 -3.882980 -4.174067
H 1.0 4.743666 -4.442855 -3.996631
C 6.0 2.985959 -3.867251 -3.155437
O 8.0 3.137848 -4.474427 -2.095440
C 6.0 0.334800 -0.803335 -1.759065
H 1.0 0.859915 -0.243994 -2.538732
C 6.0 1.146157 -2.013946 -1.280783
H 1.0 2.221207 -1.823093 -1.214813
O 8.0 0.629518 -2.461529 -0.024008
H 1.0 0.280172 -1.651283 0.399640
O 8.0 0.002089 0.048121 -0.662077
P 15.0 0.697290 1.555615 -0.587196
O 8.0 0.470768 2.240716 -1.902267
O 8.0 2.063186 1.452169 0.015646
O 8.0 -0.269242 2.168133 0.573345
C 6.0 -1.661439 2.414176 0.268296
H 1.0 -2.140646 1.484542 -0.056486
H 1.0 -1.737683 3.158609 -0.531673
C 6.0 -2.339078 2.931097 1.521382
H 1.0 -3.355888 3.246704 1.266942
O 8.0 -2.445438 1.845259 2.494828
C 6.0 -1.797128 2.191816 3.708988
H 1.0 -2.502308 2.480859 4.492224
N 7.0 -1.106374 0.982794 4.195624
C 6.0 -0.429002 0.185178 3.305206
H 1.0 -0.480404 0.525918 2.277187
C 6.0 0.236838 -0.932867 3.682523
H 1.0 0.756789 -1.548765 2.960971
C 6.0 0.270473 -1.312610 5.072753
O 8.0 0.836149 -2.301928 5.553699
N 7.0 -0.404191 -0.417005 5.915391
H 1.0 -0.391558 -0.627893 6.910133
C 6.0 -1.093439 0.727288 5.565932
O 8.0 -1.638221 1.452995 6.394865
C 6.0 -1.599658 4.071036 2.233928
H 1.0 -0.935082 4.619285 1.563944
C 6.0 -0.832010 3.347605 3.350527
H 1.0 0.090534 2.924473 2.945237
O 8.0 -0.495355 4.187086 4.437401
H 1.0 -1.222560 4.841034 4.489213
O 8.0 -2.517304 4.970266 2.885246
H 1.0 -2.548178 5.797139 2.379121
 $END
