!   File created by MacMolPlt 7.7.3
 $CONTRL SCFTYP=rhf RUNTYP=ENERGY MAXIT=10 $END
 $contrl ispher=1 $end
 $contrl icharg=0 mult=1 $end
 $CONTRL NPRINT=-5 $END
 $SYSTEM mwords=5000 memddi=5000 $END
 $BASIS
 GBASIS=df2tzvp !  Basis set name in the external file
 BASNAM=def2dt ! External file name, same as extbas in gms-files.*
 EXTFIL=.T. ! Tell gamess to look for an external file
 $END
 $SCF DIRSCF=.TRUE. $END
 $DATA
17
C1
C 6.0 0.765020 -0.573336 -1.207543
C 6.0 0.462812 0.787592 -1.207904
C 6.0 0.312068 1.468409 0.000000
C 6.0 0.462812 0.787592 1.207904
C 6.0 0.765020 -0.573336 1.207543
C 6.0 0.916560 -1.253410 0.000000
H 1.0 0.881077 -1.101054 -2.144149
H 1.0 0.341798 1.314761 -2.144055
H 1.0 0.076268 2.523693 0.000000
H 1.0 0.341798 1.314761 2.144055
H 1.0 0.881077 -1.101054 2.144149
H 1.0 1.153415 -2.308616 0.000000
H 1.0 -2.638504 -1.182532 0.000000
H 1.0 -1.917103 0.134463 0.000000
O 8.0 -2.804120 -0.237934 0.000000
 $END
