!   File created by MacMolPlt 7.7.3
 $CONTRL SCFTYP=rhf RUNTYP=ENERGY MAXIT=10 $END
 $contrl ispher=1 $end
 $contrl icharg=0 mult=1 $end
 $CONTRL NPRINT=-5 $END
 $SYSTEM mwords=5000 memddi=5000 $END
 $BASIS
 GBASIS=df2tzvp !  Basis set name in the external file
 BASNAM=def2dt ! External file name, same as extbas in gms-files.*
 EXTFIL=.T. ! Tell gamess to look for an external file
 $END
 $SCF DIRSCF=.TRUE. $END
 $DATA
11a
C1
C 6.0 -1.207196 -0.696975 0.000000
C 6.0 -1.207196 0.696975 0.000000
C 6.0 0.000000 -1.393949 0.000000
C 6.0 0.000000 1.393949 0.000000
C 6.0 1.207196 0.696975 0.000000
C 6.0 1.207196 -0.696975 0.000000
H 1.0 0.000000 -2.474433 0.000000
H 1.0 2.142922 -1.237217 0.000000
H 1.0 2.142922 1.237217 0.000000
H 1.0 0.000000 2.474433 0.000000
H 1.0 -2.142922 1.237217 0.000000
H 1.0 -2.142922 -1.237217 0.000000
 $END
