!   File created by MacMolPlt 7.7.3
 $CONTRL SCFTYP=rhf RUNTYP=ENERGY MAXIT=1 $END
 $contrl ispher=1 $end
 $contrl icharg=0 mult=1 $end
 $CONTRL NPRINT=-5 $END
 $SYSTEM mwords=5000 memddi=5000 $END
 $BASIS GBASIS=CCD $END
 $SCF DIRSCF=.TRUE. $END
 $DATA
64A
C1
C 6.0 1.885391 0.166531 0.077412
H 1.0 1.897250 1.122756 -0.440783
H 1.0 2.570996 -0.520036 -0.410286
H 1.0 2.225422 0.312879 1.101281
C 6.0 0.517504 -0.469343 0.121862
O 8.0 0.354929 -1.646098 0.419140
N 7.0 -0.517826 0.366030 -0.170624
H 1.0 -0.313335 1.330075 -0.358514
C 6.0 -1.894336 -0.070513 -0.097646
H 1.0 -1.889061 -1.155889 -0.091788
H 1.0 -2.384867 0.279339 0.810905
H 1.0 -2.452068 0.284269 -0.960960
 $END
