!   File created by MacMolPlt 7.7.3
 $CONTRL SCFTYP=rhf RUNTYP=ENERGY MAXIT=1 $END
 $contrl ispher=1 $end
 $contrl icharg=0 mult=1 $end
 $CONTRL NPRINT=-5 $END
 $SYSTEM mwords=5000 memddi=5000 $END
 $BASIS
 GBASIS=df2svpd !  Basis set name in the external file
 BASNAM=def2dt ! External file name, same as extbas in gms-files.*
 EXTFIL=.T. ! Tell gamess to look for an external file
 $END
 $SCF DIRSCF=.TRUE. $END
 $DATA
07
C1
N 7.0 1.281204 -0.033704 -0.593739
N 7.0 3.199340 0.020079 -2.055808
N 7.0 4.434772 -0.011167 1.314131
N 7.0 5.275676 0.035517 -0.771575
N 7.0 1.417806 -0.082260 1.724292
N 7.0 -3.574987 -0.006688 -1.731214
N 7.0 -1.579461 -0.016783 -0.578743
C 6.0 5.529182 0.019673 0.572370
C 6.0 3.910800 0.013821 -0.920835
C 6.0 2.020152 -0.041500 0.527584
C 6.0 1.895264 -0.004467 -1.795649
C 6.0 -4.267497 0.011181 -0.548500
C 6.0 -3.645552 0.016211 0.651486
C 6.0 -2.189950 0.001741 0.661825
C 6.0 3.420984 -0.015172 0.384609
C 6.0 -2.193403 -0.020671 -1.811084
C 6.0 -4.364427 0.035614 1.959017
H 1.0 5.949727 0.059152 -1.518529
H 1.0 0.404879 -0.048100 1.789071
H 1.0 1.990568 -0.040463 2.547069
H 1.0 1.225631 -0.000698 -2.646420
H 1.0 6.534449 0.031830 0.959035
H 1.0 -4.055531 -0.009332 -2.615341
H 1.0 -0.537638 -0.027341 -0.593275
H 1.0 -5.344736 0.021211 -0.637566
H 1.0 -4.097742 -0.835981 2.554719
H 1.0 -4.080520 0.912894 2.538179
H 1.0 -5.442211 0.044829 1.809881
O 8.0 -1.521286 0.005486 1.697236
O 8.0 -1.595491 -0.034912 -2.872227
 $END
