!   File created by MacMolPlt 7.7.3
 $CONTRL SCFTYP=rhf RUNTYP=ENERGY MAXIT=10 $END
 $contrl ispher=1 $end
 $contrl icharg=-1 mult=1 $end
 $CONTRL NPRINT=-5 $END
 $SYSTEM mwords=5000 memddi=5000 $END
 $BASIS GBASIS=CCT $END
 $SCF DIRSCF=.TRUE. $END
 $DATA
1p
C1
H 1.0 -0.998403 -3.349367 -3.371134
O 8.0 -0.315549 -2.959221 -2.802871
C 6.0 0.198514 -3.996029 -1.953275
H 1.0 0.625652 -4.811869 -2.550416
H 1.0 -0.589271 -4.405091 -1.306167
C 6.0 1.260982 -3.402045 -1.057281
H 1.0 1.652467 -4.198439 -0.410573
O 8.0 2.351963 -2.853378 -1.841308
C 6.0 2.908554 -1.726207 -1.187882
H 1.0 3.970889 -1.874928 -0.989111
N 7.0 2.801512 -0.549145 -2.097322
C 6.0 1.890676 -0.502079 -3.124528
H 1.0 1.278553 -1.392254 -3.229827
C 6.0 1.775321 0.575723 -3.939912
H 1.0 1.042875 0.592334 -4.735193
C 6.0 2.618501 1.727350 -3.742613
O 8.0 2.629350 2.763108 -4.417768
N 7.0 3.485720 1.606650 -2.643076
H 1.0 4.086274 2.402793 -2.443693
C 6.0 3.622979 0.531813 -1.791934
O 8.0 4.399354 0.521201 -0.836100
C 6.0 0.800276 -2.235694 -0.185087
H 1.0 0.101963 -1.598300 -0.735726
C 6.0 2.117389 -1.505739 0.113108
H 1.0 1.984686 -0.439853 0.327273
O 8.0 2.808509 -2.154436 1.180306
H 1.0 2.112107 -2.518935 1.762410
O 8.0 0.189997 -2.716128 1.019739
P 15.0 -1.267373 -2.061367 1.452766
O 8.0 -1.647357 -2.806247 2.695894
O 8.0 -2.170631 -1.949887 0.264817
O 8.0 -0.863253 -0.521084 1.799575
C 6.0 -0.046479 -0.151848 2.926542
H 1.0 0.972683 0.050932 2.583478
H 1.0 -0.037433 -0.952390 3.674327
C 6.0 -0.679514 1.100699 3.506363
H 1.0 -0.131467 1.412830 4.400061
O 8.0 -0.608912 2.202011 2.558677
C 6.0 -1.875487 2.410532 1.934831
H 1.0 -2.186923 3.436124 2.142128
N 7.0 -1.728035 2.360331 0.460924
C 6.0 -1.979471 1.245630 -0.306602
H 1.0 -2.320644 0.361354 0.213862
C 6.0 -1.795114 1.214288 -1.649740
H 1.0 -2.011471 0.313856 -2.208953
C 6.0 -1.308148 2.376645 -2.343857
O 8.0 -1.124348 2.498452 -3.559003
N 7.0 -1.008889 3.446686 -1.482860
H 1.0 -0.633183 4.288082 -1.912638
C 6.0 -1.170577 3.508852 -0.115481
O 8.0 -0.847800 4.496942 0.541306
C 6.0 -2.163845 0.909431 3.824471
H 1.0 -2.404619 -0.138686 4.011539
C 6.0 -2.894707 1.431171 2.557337
H 1.0 -3.116665 0.592523 1.900623
O 8.0 -4.130095 2.062210 2.862861
H 1.0 -4.003685 2.448684 3.754907
O 8.0 -2.532061 1.710064 4.962533
H 1.0 -3.096335 1.171345 5.539273
 $END
