!   File created by MacMolPlt 7.7.3
 $CONTRL SCFTYP=rhf RUNTYP=ENERGY MAXIT=10 $END
 $contrl ispher=1 $end
 $contrl icharg=0 mult=1 $end
 $CONTRL NPRINT=-5 $END
 $SYSTEM mwords=5000 memddi=5000 $END
 $BASIS
 GBASIS=df2svpd !  Basis set name in the external file
 BASNAM=def2dt ! External file name, same as extbas in gms-files.*
 EXTFIL=.T. ! Tell gamess to look for an external file
 $END
 $SCF DIRSCF=.TRUE. $END
 $DATA
61
C1
C 6.0 -2.443699 -0.127364 -0.824253
H 1.0 -2.659072 -0.720216 -1.713154
H 1.0 -2.394678 -0.810735 0.023236
H 1.0 -3.280380 0.552654 -0.668187
C 6.0 -1.130052 0.626989 -0.986188
H 1.0 -0.957053 1.258143 -0.110885
H 1.0 -1.194531 1.303156 -1.842046
C 6.0 0.058148 -0.306999 -1.175602
H 1.0 0.141091 -0.967428 -0.307549
H 1.0 -0.129203 -0.958288 -2.034377
C 6.0 1.374648 0.428886 -1.386588
H 1.0 1.543285 1.115483 -0.553141
H 1.0 1.297741 1.051454 -2.280881
C 6.0 2.559222 -0.519150 -1.518128
H 1.0 2.420388 -1.195503 -2.361345
H 1.0 3.493147 0.019404 -1.671556
H 1.0 2.666840 -1.129699 -0.621512
C 6.0 -0.651915 -0.280152 2.465664
O 8.0 -1.074529 -1.395332 2.268518
O 8.0 -1.465608 0.778813 2.698254
H 1.0 -2.366370 0.424433 2.657718
C 6.0 0.788352 0.129514 2.482870
H 1.0 1.414175 -0.740667 2.324714
H 1.0 0.964389 0.863788 1.699745
H 1.0 1.025663 0.598815 3.434672
 $END
