!   File created by MacMolPlt 7.7.3
 $CONTRL SCFTYP=rhf RUNTYP=ENERGY MAXIT=10 $END
 $contrl ispher=1 $end
 $contrl icharg=0 mult=1 $end
 $CONTRL NPRINT=-5 $END
 $SYSTEM mwords=5000 memddi=5000 $END
 $BASIS
 GBASIS=df2svpd !  Basis set name in the external file
 BASNAM=def2dt ! External file name, same as extbas in gms-files.*
 EXTFIL=.T. ! Tell gamess to look for an external file
 $END
 $SCF DIRSCF=.TRUE. $END
 $DATA
31A
C1
N 7.0 -0.008650 -1.304135 -0.019210
H 1.0 -0.010999 -2.314748 -0.003351
C 6.0 -1.266590 -0.685930 -0.049146
O 8.0 -2.284997 -1.356609 -0.059001
C 6.0 -1.194595 0.763994 -0.065397
H 1.0 -2.110516 1.327406 -0.107947
C 6.0 0.007029 1.373782 -0.019467
H 1.0 0.112590 2.448422 -0.021290
N 7.0 1.176753 0.666229 0.038672
H 1.0 2.065944 1.132718 0.102520
C 6.0 1.235409 -0.715887 0.062603
O 8.0 2.278621 -1.335242 0.141013
 $END
