!   File created by MacMolPlt 7.7.3
 $CONTRL SCFTYP=rhf RUNTYP=ENERGY MAXIT=10 $END
 $contrl ispher=1 $end
 $contrl icharg=0 mult=1 $end
 $CONTRL NPRINT=-5 $END
 $SYSTEM mwords=5000 memddi=5000 $END
 $BASIS GBASIS=CCT $END
 $SCF DIRSCF=.TRUE. $END
 $DATA
54
C1
C 6.0 0.756014 -0.574322 -1.207557
H 1.0 0.872059 -1.102047 -2.144145
C 6.0 0.453810 0.786586 -1.207895
H 1.0 0.332831 1.313761 -2.144054
C 6.0 0.303157 1.467461 0.000000
H 1.0 0.067332 2.522732 0.000000
C 6.0 0.453810 0.786586 1.207895
H 1.0 0.332831 1.313761 2.144054
C 6.0 0.756014 -0.574322 1.207557
H 1.0 0.872059 -1.102047 2.144145
C 6.0 0.907516 -1.254388 0.000000
H 1.0 1.144353 -2.309621 0.000000
O 8.0 -2.767964 -0.233670 0.000000
H 1.0 -2.603160 -1.178391 0.000000
H 1.0 -1.880663 0.137921 0.000000
 $END
