!   File created by MacMolPlt 7.7.3
 $CONTRL SCFTYP=rhf RUNTYP=ENERGY MAXIT=10 $END
 $contrl ispher=1 $end
 $contrl icharg=0 mult=1 $end
 $CONTRL NPRINT=-5 $END
 $SYSTEM mwords=5000 memddi=5000 $END
 $BASIS GBASIS=N311 NGAUSS=6 NDFUNC=3 NFFUNC=1 NPFUNC=3 $END
 $SCF DIRSCF=.TRUE. $END
 $DATA
17A
C1
N 7.0 1.314053 0.054694 0.000000
H 1.0 2.342475 0.105930 0.000000
C 6.0 0.747228 -1.208501 0.000000
O 8.0 1.449954 -2.221592 0.000000
C 6.0 -0.699570 -1.230405 0.000000
H 1.0 -1.205538 -2.179908 0.000000
C 6.0 -1.377968 -0.063982 0.000000
H 1.0 -2.456845 -0.017288 0.000000
N 7.0 -0.730785 1.137337 0.000000
H 1.0 -1.239786 2.005806 0.000000
C 6.0 0.652574 1.268947 0.000000
O 8.0 1.204209 2.348962 0.000000
 $END
