!   File created by MacMolPlt 7.7.3
 $CONTRL SCFTYP=rhf RUNTYP=ENERGY MAXIT=1 $END
 $contrl ispher=1 $end
 $contrl icharg=0 mult=1 $end
 $CONTRL NPRINT=-5 $END
 $SYSTEM mwords=5000 memddi=5000 $END
 $BASIS GBASIS=N311 NGAUSS=6 NDFUNC=3 NFFUNC=1 NPFUNC=3 $END
 $SCF DIRSCF=.TRUE. $END
 $DATA
42
C1
N 7.0 0.199781 -1.008276 -1.846382
H 1.0 0.454449 -1.960339 -1.620460
C 6.0 -1.174998 -0.737271 -1.910745
O 8.0 -1.989595 -1.619852 -1.703327
C 6.0 -1.472663 0.647569 -2.232669
H 1.0 -2.502304 0.952064 -2.306333
C 6.0 -0.464061 1.519376 -2.435337
H 1.0 -0.634384 2.558056 -2.676392
N 7.0 0.849680 1.142405 -2.343398
H 1.0 1.593744 1.805293 -2.484268
C 6.0 1.258313 -0.144125 -2.033984
O 8.0 2.426356 -0.465303 -1.938349
C 6.0 1.060775 -1.027097 1.728516
H 1.0 1.514627 -1.119153 0.740533
H 1.0 1.605277 -1.691077 2.397713
C 6.0 1.115088 0.438855 2.161452
H 1.0 2.073378 0.911754 1.950727
H 1.0 0.926973 0.520493 3.234675
C 6.0 -0.052264 1.051670 1.390680
H 1.0 0.222041 1.140451 0.337209
H 1.0 -0.336678 2.042811 1.742314
C 6.0 -1.169208 0.014098 1.561709
H 1.0 -1.894747 0.037712 0.750337
H 1.0 -1.713294 0.218795 2.483957
C 6.0 -0.446172 -1.352450 1.665366
H 1.0 -0.688836 -1.996606 0.822006
H 1.0 -0.761278 -1.879852 2.564452
 $END
