!   File created by MacMolPlt 7.7.3
 $CONTRL SCFTYP=rhf RUNTYP=ENERGY MAXIT=1 $END
 $contrl ispher=1 $end
 $contrl icharg=0 mult=1 $end
 $CONTRL NPRINT=-5 $END
 $SYSTEM mwords=5000 memddi=5000 $END
 $BASIS
 GBASIS=df2svpd !  Basis set name in the external file
 BASNAM=def2dt ! External file name, same as extbas in gms-files.*
 EXTFIL=.T. ! Tell gamess to look for an external file
 $END
 $SCF DIRSCF=.TRUE. $END
 $DATA
18
C1
O 8.0 -3.597784 -0.166664 -0.000499
H 1.0 -3.916713 0.736826 0.000144
H 1.0 -2.632294 -0.066798 -0.000252
N 7.0 -0.680932 0.031656 0.000147
C 6.0 0.014975 -0.002314 1.144895
H 1.0 -0.569698 0.021297 2.055763
C 6.0 1.403998 -0.067497 1.194891
H 1.0 1.909905 -0.092351 2.149220
C 6.0 2.115161 -0.100623 -0.000021
H 1.0 3.195001 -0.152396 -0.000101
C 6.0 1.403853 -0.067563 -1.194822
H 1.0 1.909650 -0.092436 -2.149220
C 6.0 0.014823 -0.002368 -1.144676
H 1.0 -0.569946 0.021232 -2.055468
 $END
