!   File created by MacMolPlt 7.7.3
 $CONTRL SCFTYP=rhf RUNTYP=ENERGY MAXIT=1 $END
 $contrl ispher=1 $end
 $contrl icharg=0 mult=1 $end
 $CONTRL NPRINT=-5 $END
 $SYSTEM mwords=5000 memddi=5000 $END
 $BASIS GBASIS=N311 NGAUSS=6 NDFUNC=3 NFFUNC=1 NPFUNC=3 $END
 $SCF DIRSCF=.TRUE. $END
 $DATA
19
C1
C 6.0 -0.714147 -0.659658 1.207702
C 6.0 -1.410907 -0.634587 0.000000
C 6.0 -0.714147 -0.659658 -1.207702
C 6.0 0.679593 -0.709745 -1.207866
C 6.0 1.376606 -0.734787 0.000000
C 6.0 0.679593 -0.709745 1.207866
C 6.0 0.070824 2.701471 0.000000
H 1.0 -2.491293 -0.592941 0.000000
H 1.0 -1.254321 -0.637863 -2.144051
H 1.0 1.219916 -0.727310 -2.144257
H 1.0 2.457217 -0.772216 0.000000
H 1.0 1.219916 -0.727310 2.144257
H 1.0 -1.254321 -0.637863 2.144051
H 1.0 0.143257 1.636051 0.000000
N 7.0 -0.007784 3.866160 0.000000
 $END
