!   File created by MacMolPlt 7.7.3
 $CONTRL SCFTYP=rhf RUNTYP=ENERGY MAXIT=10 $END
 $contrl ispher=1 $end
 $contrl icharg=0 mult=1 $end
 $CONTRL NPRINT=-5 $END
 $SYSTEM mwords=5000 memddi=5000 $END
 $BASIS GBASIS=CCT $END
 $SCF DIRSCF=.TRUE. $END
 $DATA
22
C1
C 6.0 -2.650606 -0.483875 -0.063682
O 8.0 -2.004062 0.538492 0.122688
O 8.0 -2.115069 -1.673975 -0.289232
H 1.0 -1.123659 -1.607639 -0.283362
C 6.0 -4.148404 -0.524706 -0.061488
H 1.0 -4.543629 0.465990 0.126941
H 1.0 -4.501236 -0.895637 -1.020850
H 1.0 -4.490094 -1.219097 0.702391
N 7.0 2.651718 -0.722942 -0.155968
H 1.0 3.044923 -1.638332 -0.327687
C 6.0 3.573245 0.325174 0.025486
O 8.0 4.770392 0.106878 -0.027394
C 6.0 2.934179 1.604636 0.266093
H 1.0 3.553714 2.471561 0.417570
C 6.0 1.587095 1.684626 0.295474
H 1.0 1.064255 2.613073 0.470772
N 7.0 0.783364 0.593944 0.105068
H 1.0 -0.240687 0.663892 0.128858
C 6.0 1.283297 -0.656279 -0.129104
O 8.0 0.571265 -1.645784 -0.302574
 $END
