!   File created by MacMolPlt 7.7.3
 $CONTRL SCFTYP=rhf RUNTYP=ENERGY MAXIT=10 $END
 $contrl ispher=1 $end
 $contrl icharg=0 mult=1 $end
 $CONTRL NPRINT=-5 $END
 $SYSTEM mwords=5000 memddi=5000 $END
 $BASIS GBASIS=CCD $END
 $SCF DIRSCF=.TRUE. $END
 $DATA
44
C1
C 6.0 0.666398 0.204920 -2.764240
H 1.0 1.228880 -0.308774 -1.997717
H 1.0 1.228033 0.718317 -3.531586
C 6.0 -0.665976 0.204082 -2.764365
H 1.0 -1.227924 -0.310390 -1.997873
H 1.0 -1.228187 0.716755 -3.531725
C 6.0 -2.532762 -0.372550 0.961366
H 1.0 -2.562256 -0.985571 0.060176
H 1.0 -2.568896 -1.046771 1.816983
H 1.0 -3.433934 0.238466 0.978612
C 6.0 -1.271326 0.480125 0.997184
H 1.0 -1.271732 1.100219 1.896578
H 1.0 -1.262937 1.167033 0.148123
C 6.0 -0.000052 -0.357433 0.970241
H 1.0 -0.000206 -1.044105 1.822073
H 1.0 0.000090 -0.985010 0.073598
C 6.0 1.271169 0.480154 0.997645
H 1.0 1.271442 1.099965 1.897131
H 1.0 1.262974 1.167229 0.148738
C 6.0 2.532620 -0.372571 0.961821
H 1.0 2.562244 -0.985427 0.060512
H 1.0 3.433798 0.238366 0.979399
H 1.0 2.568539 -1.047027 1.817327
 $END
