!   File created by MacMolPlt 7.7.3
 $CONTRL SCFTYP=rhf RUNTYP=ENERGY MAXIT=10 $END
 $contrl ispher=1 $end
 $contrl icharg=0 mult=1 $end
 $CONTRL NPRINT=-5 $END
 $SYSTEM mwords=5000 memddi=5000 $END
 $BASIS
 GBASIS=df2svpd !  Basis set name in the external file
 BASNAM=def2dt ! External file name, same as extbas in gms-files.*
 EXTFIL=.T. ! Tell gamess to look for an external file
 $END
 $SCF DIRSCF=.TRUE. $END
 $DATA
06A
C1
O 8.0 0.146476 1.088671 0.004629
H 1.0 1.119020 1.114551 -0.000418
C 6.0 -0.223275 -0.271075 -0.000143
H 1.0 -1.309527 -0.320355 0.004109
H 1.0 0.129990 -0.801811 -0.889500
H 1.0 0.137316 -0.809980 0.881323
 $END
