!   File created by MacMolPlt 7.7.3
 $CONTRL SCFTYP=rhf RUNTYP=ENERGY MAXIT=1 $END
 $contrl ispher=1 $end
 $contrl icharg=0 mult=1 $end
 $CONTRL NPRINT=-5 $END
 $SYSTEM mwords=5000 memddi=5000 $END
 $BASIS GBASIS=CCT $END
 $SCF DIRSCF=.TRUE. $END
 $DATA
11B
C1
C 6.0 -1.025076 1.531108 -0.456171
H 1.0 -0.900457 1.942285 -1.455215
H 1.0 -0.518504 2.172100 0.261614
H 1.0 -2.091487 1.504578 -0.237749
C 6.0 -0.513084 0.113310 -0.453877
O 8.0 -0.973064 -0.752426 -1.193051
N 7.0 0.473399 -0.159722 0.438454
H 1.0 0.873160 0.595211 0.963807
C 6.0 1.061844 -1.479313 0.515954
H 1.0 0.273668 -2.220643 0.422933
H 1.0 1.783104 -1.651308 -0.282591
H 1.0 1.556498 -1.595181 1.475893
 $END
