!   File created by MacMolPlt 7.7.3
 $CONTRL SCFTYP=rhf RUNTYP=ENERGY MAXIT=10 $END
 $contrl ispher=1 $end
 $contrl icharg=0 mult=1 $end
 $CONTRL NPRINT=-5 $END
 $SYSTEM mwords=5000 memddi=5000 $END
 $BASIS
 GBASIS=df2tzvp !  Basis set name in the external file
 BASNAM=def2dt ! External file name, same as extbas in gms-files.*
 EXTFIL=.T. ! Tell gamess to look for an external file
 $END
 $SCF DIRSCF=.TRUE. $END
 $DATA
62B
C1
C 6.0 0.211239 0.565268 -0.120975
O 8.0 0.238151 1.750341 -0.412816
N 7.0 1.343819 -0.186610 -0.018155
H 1.0 2.214759 0.235971 -0.286818
H 1.0 1.304881 -1.178497 0.113268
C 6.0 -1.078982 -0.173670 0.143479
H 1.0 -0.931732 -1.134391 0.630603
H 1.0 -1.585210 -0.331979 -0.807335
H 1.0 -1.716926 0.453567 0.758750
 $END
