!   File created by MacMolPlt 7.7.3
 $CONTRL SCFTYP=rhf RUNTYP=ENERGY MAXIT=10 $END
 $contrl ispher=1 $end
 $contrl icharg=-1 mult=1 $end
 $CONTRL NPRINT=-5 $END
 $SYSTEM mwords=5000 memddi=5000 $END
 $BASIS GBASIS=CCT $END
 $SCF DIRSCF=.TRUE. $END
 $DATA
7a
C1
H 1.0 -5.351692 -1.398349 -2.372873
O 8.0 -4.519811 -1.428589 -1.873865
C 6.0 -4.670135 -0.592774 -0.716070
H 1.0 -5.582719 -0.851138 -0.165061
H 1.0 -4.720251 0.467441 -1.000997
C 6.0 -3.470605 -0.769995 0.184885
H 1.0 -3.563270 -0.066694 1.021879
O 8.0 -3.428311 -2.124761 0.725671
C 6.0 -2.091219 -2.570850 0.838802
H 1.0 -1.898170 -2.950857 1.843192
N 7.0 -1.870462 -3.710367 -0.111456
C 6.0 -2.764813 -4.019218 -1.103354
H 1.0 -3.637360 -3.376925 -1.144270
C 6.0 -2.561198 -5.040822 -1.974167
H 1.0 -3.286123 -5.262453 -2.746177
C 6.0 -1.369458 -5.842562 -1.882842
O 8.0 -1.058960 -6.796664 -2.608235
N 7.0 -0.505941 -5.447426 -0.848087
H 1.0 0.357708 -5.974355 -0.743596
C 6.0 -0.683677 -4.418134 0.051768
O 8.0 0.137187 -4.136546 0.924861
C 6.0 -2.101314 -0.596281 -0.470836
H 1.0 -2.085979 -1.039775 -1.469547
C 6.0 -1.188249 -1.387006 0.472560
H 1.0 -0.255936 -1.707254 0.000495
O 8.0 -0.927609 -0.631716 1.656469
H 1.0 -0.915902 0.305176 1.377668
O 8.0 -1.747546 0.783544 -0.523113
P 15.0 -0.918217 1.340956 -1.855408
O 8.0 -1.869249 2.169449 -2.666345
O 8.0 -0.130680 0.219020 -2.457351
O 8.0 0.153454 2.303883 -1.088300
C 6.0 -0.331871 3.366502 -0.242135
H 1.0 -1.193311 3.025193 0.340187
H 1.0 -0.632095 4.223525 -0.855270
C 6.0 0.777238 3.786673 0.692201
H 1.0 0.435627 4.660346 1.262214
O 8.0 1.057052 2.703076 1.625073
C 6.0 2.433650 2.657091 1.946058
H 1.0 2.576570 2.658923 3.027795
N 7.0 3.018190 1.378038 1.418348
C 6.0 2.317244 0.545802 0.585064
H 1.0 1.319247 0.886821 0.347155
C 6.0 2.844529 -0.597372 0.079063
H 1.0 2.264610 -1.227093 -0.581943
C 6.0 4.198624 -0.968677 0.394603
O 8.0 4.804103 -1.974904 0.003787
N 7.0 4.854559 -0.039642 1.218999
H 1.0 5.821027 -0.242988 1.461426
C 6.0 4.345976 1.125883 1.749966
O 8.0 5.008978 1.889568 2.452529
C 6.0 2.135654 4.088876 0.067642
H 1.0 2.356391 3.379157 -0.735746
C 6.0 3.083558 3.867047 1.257859
H 1.0 4.116452 3.671325 0.958684
O 8.0 3.011496 4.978870 2.151365
H 1.0 2.886023 5.764221 1.581505
O 8.0 2.147569 5.431304 -0.418614
H 1.0 2.869414 5.514480 -1.064113
 $END
