!   File created by MacMolPlt 7.7.3
 $CONTRL SCFTYP=rhf RUNTYP=ENERGY MAXIT=10 $END
 $contrl ispher=1 $end
 $contrl icharg=-1 mult=1 $end
 $CONTRL NPRINT=-5 $END
 $SYSTEM mwords=5000 memddi=5000 $END
 $BASIS
 GBASIS=df2svpd !  Basis set name in the external file
 BASNAM=def2dt ! External file name, same as extbas in gms-files.*
 EXTFIL=.T. ! Tell gamess to look for an external file
 $END
 $SCF DIRSCF=.TRUE. $END
 $DATA
1c
C1
H 1.0 5.218395 -2.815277 0.194392
O 8.0 4.541990 -2.122418 0.130970
C 6.0 5.184678 -0.911398 -0.303327
H 1.0 5.881532 -1.117055 -1.124106
H 1.0 5.739946 -0.447268 0.522867
C 6.0 4.133668 0.068801 -0.771419
H 1.0 4.624924 1.025410 -0.991717
O 8.0 3.500117 -0.417841 -1.988783
C 6.0 2.131109 -0.058039 -2.010391
H 1.0 1.885443 0.489292 -2.921330
N 7.0 1.314327 -1.307255 -2.037576
C 6.0 1.783573 -2.484767 -1.511499
H 1.0 2.787901 -2.433786 -1.100622
C 6.0 1.050952 -3.626555 -1.513638
H 1.0 1.448228 -4.541314 -1.094371
C 6.0 -0.267449 -3.637319 -2.090550
O 8.0 -1.035293 -4.602538 -2.171530
N 7.0 -0.674272 -2.384234 -2.582285
H 1.0 -1.596032 -2.336924 -3.008879
C 6.0 0.040821 -1.204138 -2.586160
O 8.0 -0.411894 -0.149114 -3.028712
C 6.0 2.969475 0.317391 0.185847
H 1.0 2.678831 -0.611153 0.689289
C 6.0 1.839120 0.774361 -0.755571
H 1.0 0.843280 0.566072 -0.360063
O 8.0 1.955757 2.153146 -1.094103
H 1.0 1.755167 2.631350 -0.265730
O 8.0 3.369403 1.280814 1.164816
P 15.0 2.441177 1.466110 2.503963
O 8.0 3.174122 2.446560 3.367265
O 8.0 1.987452 0.137262 3.033755
O 8.0 1.158937 2.207295 1.767465
C 6.0 -0.143632 2.081438 2.372168
H 1.0 -0.212461 2.731101 3.253385
H 1.0 -0.297682 1.041930 2.681470
C 6.0 -1.192383 2.512120 1.375589
H 1.0 -0.989308 3.530418 1.022304
O 8.0 -1.183293 1.618827 0.228572
C 6.0 -2.496260 1.393487 -0.243232
H 1.0 -2.572831 1.641099 -1.303150
N 7.0 -2.806515 -0.066681 -0.114789
C 6.0 -2.027576 -0.925027 0.616527
H 1.0 -1.159321 -0.466228 1.071449
C 6.0 -2.313419 -2.243933 0.748338
H 1.0 -1.673550 -2.894521 1.328845
C 6.0 -3.483520 -2.795460 0.111201
O 8.0 -3.864782 -3.969330 0.153604
N 7.0 -4.221401 -1.847367 -0.618300
H 1.0 -5.059527 -2.180545 -1.088715
C 6.0 -3.953467 -0.503951 -0.771705
O 8.0 -4.666250 0.256770 -1.424616
C 6.0 -2.623216 2.428605 1.909744
H 1.0 -2.745302 1.557834 2.563917
C 6.0 -3.440782 2.245302 0.615536
H 1.0 -4.404886 1.754859 0.781720
O 8.0 -3.609279 3.505897 -0.029470
H 1.0 -3.684706 4.161128 0.693841
O 8.0 -2.949092 3.631715 2.602810
H 1.0 -3.680941 3.445041 3.214690
 $END
