!   File created by MacMolPlt 7.7.3
 $CONTRL SCFTYP=rhf RUNTYP=ENERGY MAXIT=10 $END
 $contrl ispher=1 $end
 $contrl icharg=0 mult=1 $end
 $CONTRL NPRINT=-5 $END
 $SYSTEM mwords=5000 memddi=5000 $END
 $BASIS GBASIS=N311 NGAUSS=6 NDFUNC=3 NFFUNC=1 NPFUNC=3 $END
 $SCF DIRSCF=.TRUE. $END
 $DATA
02
C1
O 8.0 -2.235437 0.143124 0.279183
H 1.0 -2.652114 0.941997 0.604952
H 1.0 -1.306411 0.253881 0.520131
O 8.0 0.606526 0.239596 0.665558
H 1.0 0.974509 -0.332481 1.343086
C 6.0 1.071531 -0.232034 -0.596601
H 1.0 0.640714 0.419060 -1.349715
H 1.0 2.157495 -0.181241 -0.670913
H 1.0 0.743188 -1.251903 -0.795682
 $END
