!   File created by MacMolPlt 7.7.3
 $CONTRL SCFTYP=rhf RUNTYP=ENERGY MAXIT=1 $END
 $contrl ispher=1 $end
 $contrl icharg=0 mult=1 $end
 $CONTRL NPRINT=-5 $END
 $SYSTEM mwords=5000 memddi=5000 $END
 $BASIS GBASIS=CCD $END
 $SCF DIRSCF=.TRUE. $END
 $DATA
16b
C1
C 6.0 0.000000 0.000000 0.604247
C 6.0 0.000000 0.000000 -0.604247
H 1.0 0.000000 0.000000 -1.668905
H 1.0 0.000000 0.000000 1.668905
 $END
