!   File created by MacMolPlt 7.7.3
 $CONTRL SCFTYP=rhf RUNTYP=ENERGY MAXIT=10 $END
 $contrl ispher=1 $end
 $contrl icharg=0 mult=1 $end
 $CONTRL NPRINT=-5 $END
 $SYSTEM mwords=5000 memddi=5000 $END
 $BASIS
 GBASIS=df2svpd !  Basis set name in the external file
 BASNAM=def2dt ! External file name, same as extbas in gms-files.*
 EXTFIL=.T. ! Tell gamess to look for an external file
 $END
 $SCF DIRSCF=.TRUE. $END
 $DATA
57B
C1
C 6.0 0.209875 1.876212 0.124378
H 1.0 -0.148270 2.041943 -0.888915
H 1.0 1.234458 2.232922 0.205819
H 1.0 -0.394222 2.449848 0.822731
C 6.0 0.173029 0.423049 0.540087
O 8.0 0.457657 0.070688 1.678625
N 7.0 -0.199367 -0.442668 -0.439154
H 1.0 -0.360495 -0.084677 -1.365223
C 6.0 -0.236160 -1.869547 -0.221067
H 1.0 -0.158072 -2.036454 0.848929
H 1.0 -1.171400 -2.287897 -0.587805
H 1.0 0.592967 -2.373420 -0.718405
 $END
