!   File created by MacMolPlt 7.7.3
 $CONTRL SCFTYP=rhf RUNTYP=ENERGY MAXIT=10 $END
 $contrl ispher=1 $end
 $contrl icharg=0 mult=1 $end
 $CONTRL NPRINT=-5 $END
 $SYSTEM mwords=5000 memddi=5000 $END
 $BASIS
 GBASIS=df2tzvp !  Basis set name in the external file
 BASNAM=def2dt ! External file name, same as extbas in gms-files.*
 EXTFIL=.T. ! Tell gamess to look for an external file
 $END
 $SCF DIRSCF=.TRUE. $END
 $DATA
20
C1
C 6.0 0.000000 0.000000 1.058728
C 6.0 0.000000 -1.206009 1.757367
C 6.0 0.000000 -1.207177 3.151284
C 6.0 0.000000 0.000000 3.848269
C 6.0 0.000000 1.207177 3.151284
C 6.0 0.000000 1.206009 1.757367
C 6.0 -1.394064 0.000000 -2.454461
C 6.0 -0.697047 1.207238 -2.454936
C 6.0 0.697047 1.207238 -2.454936
C 6.0 1.394064 0.000000 -2.454461
C 6.0 0.697047 -1.207238 -2.454936
C 6.0 -0.697047 -1.207238 -2.454936
H 1.0 0.000000 0.000000 -0.021888
H 1.0 0.000000 -2.141640 1.214115
H 1.0 0.000000 -2.143566 3.692689
H 1.0 0.000000 0.000000 4.929844
H 1.0 0.000000 2.143566 3.692689
H 1.0 0.000000 2.141640 1.214115
H 1.0 -2.475400 0.000000 -2.450630
H 1.0 -1.238233 2.143566 -2.453985
H 1.0 1.238233 2.143566 -2.453985
H 1.0 2.475400 0.000000 -2.450630
H 1.0 1.238233 -2.143566 -2.453985
H 1.0 -1.238233 -2.143566 -2.453985
 $END
