!   File created by MacMolPlt 7.7.3
 $CONTRL SCFTYP=rhf RUNTYP=ENERGY MAXIT=10 $END
 $contrl ispher=1 $end
 $contrl icharg=0 mult=1 $end
 $CONTRL NPRINT=-5 $END
 $SYSTEM mwords=5000 memddi=5000 $END
 $BASIS GBASIS=N311 NGAUSS=6 NDFUNC=3 NFFUNC=1 NPFUNC=3 $END
 $SCF DIRSCF=.TRUE. $END
 $DATA
55A
C1
C 6.0 0.871200 1.089070 -0.006816
H 1.0 1.546467 1.933460 -0.005884
C 6.0 1.378069 -0.209567 0.040685
H 1.0 2.446367 -0.371385 0.078844
C 6.0 0.506771 -1.298196 0.044317
H 1.0 0.900113 -2.304697 0.082447
C 6.0 -0.870755 -1.088859 0.000682
H 1.0 -1.546205 -1.933345 0.004533
C 6.0 -1.377895 0.208945 -0.043016
H 1.0 -2.446496 0.371546 -0.072869
C 6.0 -0.507324 1.298126 -0.046704
H 1.0 -0.900311 2.304902 -0.076219
 $END
