!   File created by MacMolPlt 7.7.3
 $CONTRL SCFTYP=rhf RUNTYP=ENERGY MAXIT=10 $END
 $contrl ispher=1 $end
 $contrl icharg=-1 mult=1 $end
 $CONTRL NPRINT=-5 $END
 $SYSTEM mwords=5000 memddi=5000 $END
 $BASIS GBASIS=CCD $END
 $SCF DIRSCF=.TRUE. $END
 $DATA
6p
C1
H 1.0 -1.103120 -3.248622 -3.051195
O 8.0 -0.372160 -2.880539 -2.529176
C 6.0 -0.935511 -2.197411 -1.396411
H 1.0 -1.620750 -2.855188 -0.848340
H 1.0 -1.482607 -1.299574 -1.716100
C 6.0 0.194937 -1.776276 -0.478831
H 1.0 -0.222659 -1.177870 0.337306
O 8.0 0.814324 -2.959873 0.114290
C 6.0 2.210110 -2.977733 -0.167234
H 1.0 2.805858 -2.638419 0.683709
N 7.0 2.602986 -4.369192 -0.418406
C 6.0 1.896839 -5.105982 -1.341596
H 1.0 1.060974 -4.576923 -1.792418
C 6.0 2.207568 -6.388329 -1.647167
H 1.0 1.630580 -6.943612 -2.374779
C 6.0 3.319871 -7.031252 -0.991515
O 8.0 3.713475 -8.189765 -1.172880
N 7.0 3.979311 -6.209838 -0.065572
H 1.0 4.768149 -6.620349 0.427376
C 6.0 3.693079 -4.902284 0.270746
O 8.0 4.351162 -4.271864 1.095614
C 6.0 1.324355 -0.996677 -1.165038
H 1.0 1.001199 -0.502436 -2.082823
C 6.0 2.400966 -2.060166 -1.393914
H 1.0 2.167706 -2.618225 -2.304278
O 8.0 3.709363 -1.539359 -1.525016
H 1.0 3.746214 -0.771086 -0.920562
O 8.0 1.901292 -0.022932 -0.272824
P 15.0 1.505765 1.574432 -0.412572
O 8.0 1.009143 1.870090 -1.793489
O 8.0 2.649960 2.307447 0.218065
O 8.0 0.183291 1.679734 0.546913
C 6.0 0.305889 1.517247 1.973222
H 1.0 1.084432 2.185834 2.354029
H 1.0 0.572607 0.480768 2.214914
C 6.0 -1.037879 1.854866 2.592124
H 1.0 -0.975251 1.695717 3.673646
O 8.0 -1.349224 3.261012 2.366216
C 6.0 -2.551467 3.384829 1.604431
H 1.0 -3.390736 3.676582 2.240617
N 7.0 -2.376297 4.481960 0.649153
C 6.0 -1.417076 4.385562 -0.334890
H 1.0 -0.847104 3.462180 -0.325446
C 6.0 -1.180554 5.372857 -1.230327
H 1.0 -0.419529 5.263595 -1.991442
C 6.0 -1.939517 6.596924 -1.164561
O 8.0 -1.827870 7.576125 -1.911321
N 7.0 -2.870740 6.624688 -0.115817
H 1.0 -3.422486 7.473043 -0.017570
C 6.0 -3.140195 5.640686 0.812319
O 8.0 -3.965942 5.790465 1.710602
C 6.0 -2.214467 1.054429 2.017724
H 1.0 -1.892766 0.105633 1.584255
C 6.0 -2.810283 2.004888 0.964392
H 1.0 -2.253729 1.909602 0.030270
O 8.0 -4.177278 1.758488 0.689122
H 1.0 -4.548260 1.417545 1.529488
O 8.0 -3.236716 0.831650 3.005413
H 1.0 -3.229235 -0.107100 3.247558
 $END
