!   File created by MacMolPlt 7.7.3
 $CONTRL SCFTYP=rhf RUNTYP=ENERGY MAXIT=10 $END
 $contrl ispher=1 $end
 $contrl icharg=-1 mult=1 $end
 $CONTRL NPRINT=-5 $END
 $SYSTEM mwords=5000 memddi=5000 $END
 $BASIS
 GBASIS=df2tzvp !  Basis set name in the external file
 BASNAM=def2dt ! External file name, same as extbas in gms-files.*
 EXTFIL=.T. ! Tell gamess to look for an external file
 $END
 $SCF DIRSCF=.TRUE. $END
 $DATA
2a
C1
H 1.0 1.536855 2.186827 -3.280606
O 8.0 0.878389 2.190042 -2.568012
C 6.0 1.358872 3.053092 -1.523365
H 1.0 1.570808 4.056199 -1.913813
H 1.0 2.270740 2.647307 -1.063898
C 6.0 0.287490 3.146025 -0.456496
H 1.0 0.682547 3.713477 0.391755
O 8.0 -0.869487 3.865930 -0.990742
C 6.0 -2.046344 3.084922 -0.842480
H 1.0 -2.638543 3.389064 0.024337
N 7.0 -2.892233 3.321155 -2.023111
C 6.0 -2.328673 3.243606 -3.275636
H 1.0 -1.257707 3.058878 -3.272653
C 6.0 -3.047487 3.399170 -4.413756
H 1.0 -2.570410 3.341614 -5.383325
C 6.0 -4.467389 3.646857 -4.338894
O 8.0 -5.240575 3.801857 -5.291761
N 7.0 -4.957151 3.705903 -3.025817
H 1.0 -5.952917 3.879853 -2.915912
C 6.0 -4.259325 3.543700 -1.845908
O 8.0 -4.799737 3.602170 -0.743612
C 6.0 -0.234647 1.789113 0.035995
H 1.0 0.468302 0.978378 -0.163418
C 6.0 -1.563052 1.622884 -0.712740
H 1.0 -1.366571 1.214969 -1.707749
O 8.0 -2.491464 0.769576 -0.070648
H 1.0 -2.400997 0.957652 0.884374
O 8.0 -0.557384 1.842018 1.444652
P 15.0 0.608292 1.256136 2.467837
O 8.0 0.102660 1.572517 3.842458
O 8.0 1.952830 1.687391 1.970491
O 8.0 0.553599 -0.356837 2.198022
C 6.0 -0.561090 -1.118399 2.699507
H 1.0 -1.455900 -0.902825 2.105422
H 1.0 -0.752185 -0.855815 3.745366
C 6.0 -0.227453 -2.589771 2.614534
H 1.0 -1.052344 -3.154630 3.067384
O 8.0 -0.097009 -2.994451 1.224127
C 6.0 0.908183 -3.977804 1.080091
H 1.0 0.516422 -4.857505 0.566724
N 7.0 2.007346 -3.422702 0.226457
C 6.0 2.105460 -2.083584 -0.046114
H 1.0 1.308609 -1.481602 0.373216
C 6.0 3.129222 -1.559649 -0.766779
H 1.0 3.178940 -0.497925 -0.969765
C 6.0 4.174609 -2.416268 -1.263804
O 8.0 5.157623 -2.075104 -1.934052
N 7.0 4.007784 -3.765964 -0.912004
H 1.0 4.725897 -4.414636 -1.224286
C 6.0 2.986466 -4.325830 -0.175248
O 8.0 2.929056 -5.525137 0.097621
C 6.0 1.088129 -3.018560 3.260648
H 1.0 1.859341 -2.260089 3.097876
C 6.0 1.421146 -4.308185 2.488392
H 1.0 2.488003 -4.550969 2.493204
O 8.0 0.647355 -5.392300 3.002153
H 1.0 0.548450 -5.209664 3.959031
O 8.0 0.882742 -3.248677 4.654941
H 1.0 1.745907 -3.203399 5.099786
 $END
