!   File created by MacMolPlt 7.7.3
 $CONTRL SCFTYP=rhf RUNTYP=ENERGY MAXIT=1 $END
 $contrl ispher=1 $end
 $contrl icharg=0 mult=1 $end
 $CONTRL NPRINT=-5 $END
 $SYSTEM mwords=5000 memddi=5000 $END
 $BASIS
 GBASIS=df2svpd !  Basis set name in the external file
 BASNAM=def2dt ! External file name, same as extbas in gms-files.*
 EXTFIL=.T. ! Tell gamess to look for an external file
 $END
 $SCF DIRSCF=.TRUE. $END
 $DATA
28
C1
C 6.0 0.758108 1.405971 -1.802500
H 1.0 1.453352 2.232572 -1.844721
C 6.0 1.232499 0.106506 -1.634993
H 1.0 2.295996 -0.072815 -1.554575
C 6.0 0.335862 -0.959106 -1.564005
H 1.0 0.706092 -1.967980 -1.438128
C 6.0 -1.035471 -0.725744 -1.659110
H 1.0 -1.732870 -1.550537 -1.601822
C 6.0 -1.511170 0.573930 -1.824691
H 1.0 -2.575173 0.754948 -1.886400
C 6.0 -0.613417 1.638215 -1.898497
H 1.0 -0.981883 2.646869 -2.030105
N 7.0 -0.342542 0.841034 1.456396
H 1.0 -0.715849 1.742795 1.193503
C 6.0 1.049605 0.768047 1.588410
O 8.0 1.740515 1.762471 1.443575
C 6.0 1.528505 -0.566031 1.906520
H 1.0 2.585557 -0.718247 2.040641
C 6.0 0.648796 -1.580412 2.032736
H 1.0 0.954723 -2.588832 2.269261
N 7.0 -0.696450 -1.395380 1.862644
H 1.0 -1.345198 -2.157939 1.961513
C 6.0 -1.270899 -0.170579 1.563230
O 8.0 -2.468687 -0.019756 1.421117
 $END
