!   File created by MacMolPlt 7.7.3
 $CONTRL SCFTYP=rhf RUNTYP=ENERGY MAXIT=10 $END
 $contrl ispher=1 $end
 $contrl icharg=0 mult=1 $end
 $CONTRL NPRINT=-5 $END
 $SYSTEM mwords=5000 memddi=5000 $END
 $BASIS GBASIS=CCD $END
 $SCF DIRSCF=.TRUE. $END
 $DATA
58
C1
N 7.0 -1.737295 0.870406 -0.002787
C 6.0 -1.718839 -0.472013 0.020873
H 1.0 -0.738844 -0.935223 0.036849
C 6.0 -2.872603 -1.252653 0.024785
H 1.0 -2.792613 -2.330221 0.044371
C 6.0 -4.112397 -0.622974 0.003093
H 1.0 -5.027659 -1.198719 0.005288
C 6.0 -4.144979 0.767384 -0.021592
H 1.0 -5.081528 1.306470 -0.039165
C 6.0 -2.939188 1.462999 -0.023396
H 1.0 -2.934184 2.546018 -0.042289
N 7.0 1.737127 -0.869664 0.028012
C 6.0 2.938906 -1.462840 0.030092
H 1.0 2.933682 -2.545803 0.051981
C 6.0 4.144842 -0.767882 0.006091
H 1.0 5.081281 -1.307417 0.009185
C 6.0 4.112525 0.622423 -0.021656
H 1.0 5.027900 1.197674 -0.040838
C 6.0 2.872844 1.252709 -0.024133
H 1.0 2.793072 2.330267 -0.045222
C 6.0 1.718931 0.472699 0.001060
H 1.0 0.739020 0.936362 -0.000602
 $END
