!   File created by MacMolPlt 7.7.3
 $CONTRL SCFTYP=rhf RUNTYP=ENERGY MAXIT=10 $END
 $contrl ispher=1 $end
 $contrl icharg=0 mult=1 $end
 $CONTRL NPRINT=-5 $END
 $SYSTEM mwords=5000 memddi=5000 $END
 $BASIS GBASIS=CCD $END
 $SCF DIRSCF=.TRUE. $END
 $DATA
antdimer
C1
C 6.0 -1.393709 -2.337729 1.815733
C 6.0 -0.697521 -3.456009 2.275805
C 6.0 0.697521 -3.456009 2.275805
C 6.0 1.393709 -2.337729 1.815733
C 6.0 0.701229 -1.222025 1.349109
C 6.0 -0.701229 -1.222025 1.349109
C 6.0 1.388576 0.000000 0.804733
C 6.0 -1.388576 0.000000 0.804733
C 6.0 -0.701229 1.222025 1.349109
C 6.0 0.701229 1.222025 1.349109
C 6.0 -1.393709 2.337729 1.815733
C 6.0 1.393709 2.337729 1.815733
C 6.0 -0.697521 3.456009 2.275805
C 6.0 0.697521 3.456009 2.275805
C 6.0 -1.393709 2.337729 -1.815733
C 6.0 -0.697521 3.456009 -2.275805
C 6.0 0.697521 3.456009 -2.275805
C 6.0 1.393709 2.337729 -1.815733
C 6.0 0.701229 1.222025 -1.349109
C 6.0 -0.701229 1.222025 -1.349109
C 6.0 1.388576 0.000000 -0.804733
C 6.0 -1.388576 0.000000 -0.804733
C 6.0 -0.701229 -1.222025 -1.349109
C 6.0 0.701229 -1.222025 -1.349109
C 6.0 -1.393709 -2.337729 -1.815733
C 6.0 1.393709 -2.337729 -1.815733
C 6.0 -0.697521 -3.456009 -2.275805
C 6.0 0.697521 -3.456009 -2.275805
H 1.0 -2.476723 -2.331984 1.817075
H 1.0 -1.239531 -4.318753 2.636857
H 1.0 1.239531 -4.318753 2.636857
H 1.0 2.476723 -2.331984 1.817075
H 1.0 2.433208 0.000000 1.118498
H 1.0 -2.433208 0.000000 1.118498
H 1.0 -2.476723 2.331984 1.817075
H 1.0 2.476723 2.331984 1.817075
H 1.0 -1.239531 4.318753 2.636857
H 1.0 1.239531 4.318753 2.636857
H 1.0 -2.476723 2.331984 -1.817075
H 1.0 -1.239531 4.318753 -2.636857
H 1.0 1.239531 4.318753 -2.636857
H 1.0 2.476723 2.331984 -1.817075
H 1.0 2.433208 0.000000 -1.118498
H 1.0 -2.433208 0.000000 -1.118498
H 1.0 -2.476723 -2.331984 -1.817075
H 1.0 2.476723 -2.331984 -1.817075
H 1.0 -1.239531 -4.318753 -2.636857
H 1.0 1.239531 -4.318753 -2.636857
 $END
