!   File created by MacMolPlt 7.7.3
 $CONTRL SCFTYP=rhf RUNTYP=ENERGY MAXIT=1 $END
 $contrl ispher=1 $end
 $contrl icharg=-1 mult=1 $end
 $CONTRL NPRINT=-5 $END
 $SYSTEM mwords=5000 memddi=5000 $END
 $BASIS
 GBASIS=df2svpd !  Basis set name in the external file
 BASNAM=def2dt ! External file name, same as extbas in gms-files.*
 EXTFIL=.T. ! Tell gamess to look for an external file
 $END
 $SCF DIRSCF=.TRUE. $END
 $DATA
8d
C1
H 1.0 -3.366511 1.023476 -4.825324
O 8.0 -2.949078 0.590355 -4.063814
C 6.0 -3.718106 0.914701 -2.890976
H 1.0 -4.777762 0.677274 -3.044342
H 1.0 -3.621744 1.981787 -2.648901
C 6.0 -3.188200 0.105099 -1.723587
H 1.0 -3.681768 0.447687 -0.809240
O 8.0 -3.522570 -1.309541 -1.901360
C 6.0 -2.333443 -2.090744 -1.985477
H 1.0 -2.167091 -2.652205 -1.062877
N 7.0 -2.505284 -3.097166 -3.037998
C 6.0 -2.700896 -2.685159 -4.336798
H 1.0 -2.727570 -1.606717 -4.468781
C 6.0 -2.871317 -3.549650 -5.364419
H 1.0 -3.016355 -3.191822 -6.374953
C 6.0 -2.878016 -4.969008 -5.111685
O 8.0 -3.024139 -5.866474 -5.949743
N 7.0 -2.725589 -5.299531 -3.756777
H 1.0 -2.749301 -6.289066 -3.523823
C 6.0 -2.545479 -4.447778 -2.685751
O 8.0 -2.436772 -4.853727 -1.530783
C 6.0 -1.665620 0.166351 -1.553851
H 1.0 -1.242849 1.077992 -1.976520
C 6.0 -1.172185 -1.110996 -2.245215
H 1.0 -1.060006 -0.924848 -3.314537
O 8.0 0.073536 -1.587253 -1.762518
H 1.0 0.054005 -1.422937 -0.798662
O 8.0 -1.279033 0.039951 -0.173757
P 15.0 -1.151295 1.391284 0.779281
O 8.0 -1.887378 1.130425 2.053996
O 8.0 -1.430491 2.594411 -0.074187
O 8.0 0.434650 1.309887 1.167141
C 6.0 1.404313 1.411218 0.107959
H 1.0 1.237963 2.332099 -0.461380
H 1.0 1.318483 0.555643 -0.572832
C 6.0 2.790086 1.403318 0.709280
H 1.0 3.520233 1.418379 -0.110080
O 8.0 2.991199 2.590542 1.524055
C 6.0 3.714220 2.290976 2.699351
H 1.0 4.549066 2.984073 2.818312
N 7.0 2.808118 2.469335 3.888914
C 6.0 1.491944 2.826195 3.744209
H 1.0 1.174242 2.959699 2.719283
C 6.0 0.652953 2.977362 4.800381
H 1.0 -0.381367 3.254745 4.646863
C 6.0 1.131592 2.758415 6.139054
O 8.0 0.482060 2.860337 7.188550
N 7.0 2.485141 2.389810 6.194179
H 1.0 2.878533 2.220949 7.116628
C 6.0 3.361843 2.228756 5.142840
O 8.0 4.539472 1.903992 5.299996
C 6.0 3.103546 0.233429 1.638160
H 1.0 2.217240 -0.059291 2.208239
C 6.0 4.176041 0.831438 2.566060
H 1.0 4.244412 0.323280 3.530083
O 8.0 5.439356 0.834367 1.898599
H 1.0 5.426609 0.042172 1.323121
O 8.0 3.597954 -0.860386 0.861570
H 1.0 3.478403 -1.676908 1.374844
 $END
