!   File created by MacMolPlt 7.7.3
 $CONTRL SCFTYP=rhf RUNTYP=ENERGY MAXIT=1 $END
 $contrl ispher=1 $end
 $contrl icharg=0 mult=1 $end
 $CONTRL NPRINT=-5 $END
 $SYSTEM mwords=5000 memddi=5000 $END
 $BASIS
 GBASIS=df2tzvp !  Basis set name in the external file
 BASNAM=def2dt ! External file name, same as extbas in gms-files.*
 EXTFIL=.T. ! Tell gamess to look for an external file
 $END
 $SCF DIRSCF=.TRUE. $END
 $DATA
18B
C1
N 7.0 -1.603368 0.077417 0.000092
C 6.0 -0.907461 0.043446 1.144839
H 1.0 -1.492133 0.067057 2.055707
C 6.0 0.481563 -0.021736 1.194835
H 1.0 0.987469 -0.046591 2.149165
C 6.0 1.192726 -0.054862 -0.000076
H 1.0 2.272566 -0.106636 -0.000156
C 6.0 0.481418 -0.021803 -1.194877
H 1.0 0.987215 -0.046676 -2.149276
C 6.0 -0.907612 0.043392 -1.144731
H 1.0 -1.492381 0.066993 -2.055523
 $END
