!   File created by MacMolPlt 7.7.3
 $CONTRL SCFTYP=rhf RUNTYP=ENERGY MAXIT=10 $END
 $contrl ispher=1 $end
 $contrl icharg=0 mult=1 $end
 $CONTRL NPRINT=-5 $END
 $SYSTEM mwords=5000 memddi=5000 $END
 $BASIS GBASIS=CCD $END
 $SCF DIRSCF=.TRUE. $END
 $DATA
12A
C1
N 7.0 0.417200 -0.477271 -0.662732
H 1.0 0.321513 -1.446102 -0.386879
H 1.0 -0.171940 -0.363837 -1.477492
C 6.0 -0.066245 0.390808 0.417646
H 1.0 0.037904 1.427874 0.109794
H 1.0 -1.104073 0.217405 0.708776
H 1.0 0.565641 0.251123 1.290887
 $END
