!   File created by MacMolPlt 7.7.3
 $CONTRL SCFTYP=rhf RUNTYP=ENERGY MAXIT=1 $END
 $contrl ispher=1 $end
 $contrl icharg=0 mult=1 $end
 $CONTRL NPRINT=-5 $END
 $SYSTEM mwords=5000 memddi=5000 $END
 $BASIS GBASIS=CCT $END
 $SCF DIRSCF=.TRUE. $END
 $DATA
26
C1
N 7.0 1.366181 0.837897 1.027616
H 1.0 1.041092 1.384373 1.816347
C 6.0 1.298263 1.455679 -0.227664
O 8.0 0.909841 2.609227 -0.332986
N 7.0 2.000703 -1.215059 0.194919
H 1.0 1.716565 0.988992 -2.319005
C 6.0 2.015017 -0.699022 -1.071406
H 1.0 2.286797 -1.392911 -1.852654
C 6.0 1.703792 0.590087 -1.319496
H 1.0 2.118734 -2.203372 0.349820
C 6.0 1.635225 -0.487057 1.311709
O 8.0 1.550396 -0.973667 2.422800
N 7.0 -1.366181 -0.837897 1.027616
H 1.0 -1.041092 -1.384373 1.816347
C 6.0 -1.298263 -1.455679 -0.227664
O 8.0 -0.909841 -2.609227 -0.332986
N 7.0 -2.000703 1.215059 0.194919
H 1.0 -1.716565 -0.988992 -2.319005
C 6.0 -2.015017 0.699022 -1.071406
H 1.0 -2.286797 1.392911 -1.852654
C 6.0 -1.703792 -0.590087 -1.319496
H 1.0 -2.118734 2.203372 0.349820
C 6.0 -1.635225 0.487057 1.311709
O 8.0 -1.550396 0.973667 2.422800
 $END
