!   File created by MacMolPlt 7.7.3
 $CONTRL SCFTYP=rhf RUNTYP=ENERGY MAXIT=10 $END
 $contrl ispher=1 $end
 $contrl icharg=0 mult=1 $end
 $CONTRL NPRINT=-5 $END
 $SYSTEM mwords=5000 memddi=5000 $END
 $BASIS GBASIS=CCD $END
 $SCF DIRSCF=.TRUE. $END
 $DATA
28B
C1
N 7.0 -0.481548 1.181270 -0.271899
H 1.0 -0.854856 2.083031 -0.534792
C 6.0 0.910598 1.108283 -0.139886
O 8.0 1.601509 2.102706 -0.284720
C 6.0 1.389499 -0.225795 0.178224
H 1.0 2.446551 -0.378011 0.312345
C 6.0 0.509789 -1.240176 0.304441
H 1.0 0.815717 -2.248597 0.540965
N 7.0 -0.835457 -1.055144 0.134349
H 1.0 -1.484204 -1.817703 0.233218
C 6.0 -1.409905 0.169657 -0.165066
O 8.0 -2.607693 0.320480 -0.307178
 $END
