!   File created by MacMolPlt 7.7.3
 $CONTRL SCFTYP=rhf RUNTYP=ENERGY MAXIT=1 $END
 $contrl ispher=1 $end
 $contrl icharg=-1 mult=1 $end
 $CONTRL NPRINT=-5 $END
 $SYSTEM mwords=5000 memddi=5000 $END
 $BASIS GBASIS=CCT $END
 $SCF DIRSCF=.TRUE. $END
 $DATA
5z
C1
H 1.0 -0.341749 3.119939 1.776486
O 8.0 -0.427603 2.167725 1.938851
C 6.0 0.290803 1.838858 3.137941
H 1.0 -0.213155 2.252637 4.020397
H 1.0 1.316864 2.226852 3.102257
C 6.0 0.372623 0.333189 3.245794
H 1.0 0.955679 0.072627 4.138106
O 8.0 -0.956331 -0.238990 3.359695
C 6.0 -1.007339 -1.503578 2.714363
H 1.0 -1.309520 -2.286449 3.410556
N 7.0 -2.063559 -1.448789 1.664860
C 6.0 -2.338107 -0.285428 0.988326
H 1.0 -1.754695 0.575722 1.300555
C 6.0 -3.287596 -0.208955 0.022108
H 1.0 -3.474052 0.723799 -0.492769
C 6.0 -4.059451 -1.375105 -0.329879
O 8.0 -4.952078 -1.444579 -1.182281
N 7.0 -3.688709 -2.524233 0.387082
H 1.0 -4.177669 -3.385858 0.158524
C 6.0 -2.726567 -2.639457 1.367410
O 8.0 -2.466867 -3.701762 1.930274
C 6.0 0.981348 -0.365433 2.031792
H 1.0 0.663952 0.120884 1.106353
C 6.0 0.394356 -1.781746 2.142634
H 1.0 0.353207 -2.308073 1.185179
O 8.0 1.117862 -2.538983 3.112951
H 1.0 2.051987 -2.266663 3.022440
O 8.0 2.402451 -0.338057 2.151682
P 15.0 3.361931 -0.375547 0.813287
O 8.0 3.083715 -1.619668 0.017912
O 8.0 4.746711 -0.062563 1.289717
O 8.0 2.697460 0.910837 0.039339
C 6.0 3.436589 1.499825 -1.053232
H 1.0 4.073099 0.749131 -1.534935
H 1.0 4.068560 2.307687 -0.667405
C 6.0 2.465309 2.061127 -2.073915
H 1.0 3.038413 2.616295 -2.824432
O 8.0 1.780333 0.969480 -2.762066
C 6.0 0.374485 1.090552 -2.610539
H 1.0 -0.103983 1.505311 -3.501580
N 7.0 -0.173715 -0.270401 -2.445654
C 6.0 0.522128 -1.213352 -1.730875
H 1.0 1.478232 -0.894899 -1.328512
C 6.0 0.067455 -2.478200 -1.548622
H 1.0 0.661180 -3.198535 -1.002078
C 6.0 -1.196261 -2.879016 -2.108592
O 8.0 -1.727748 -3.992122 -2.021931
N 7.0 -1.848552 -1.847187 -2.802957
H 1.0 -2.753514 -2.070509 -3.208833
C 6.0 -1.418206 -0.551015 -3.009884
O 8.0 -2.077661 0.273000 -3.638072
C 6.0 1.363512 2.955824 -1.491111
H 1.0 1.642048 3.386761 -0.526838
C 6.0 0.165200 2.003975 -1.380837
H 1.0 0.261319 1.410954 -0.469564
O 8.0 -1.081803 2.665302 -1.341345
H 1.0 -0.966959 3.463311 -1.895742
O 8.0 0.969481 3.987808 -2.413784
H 1.0 1.435158 4.805741 -2.178604
 $END
