!   File created by MacMolPlt 7.7.3
 $CONTRL SCFTYP=rhf RUNTYP=ENERGY MAXIT=1 $END
 $contrl ispher=1 $end
 $contrl icharg=0 mult=1 $end
 $CONTRL NPRINT=-5 $END
 $SYSTEM mwords=5000 memddi=5000 $END
 $BASIS
 GBASIS=df2svpd !  Basis set name in the external file
 BASNAM=def2dt ! External file name, same as extbas in gms-files.*
 EXTFIL=.T. ! Tell gamess to look for an external file
 $END
 $SCF DIRSCF=.TRUE. $END
 $DATA
22
C1
C 6.0 -2.048619 0.948531 -0.144119
C 6.0 -1.504594 0.032773 0.759225
C 6.0 -2.189092 -1.144825 1.052600
C 6.0 -3.415834 -1.418458 0.453818
C 6.0 -3.955886 -0.499170 -0.444871
C 6.0 -3.278563 0.677646 -0.745381
C 6.0 1.995463 0.971190 0.113781
C 6.0 1.548891 0.254371 -0.993184
C 6.0 2.200225 -0.922292 -1.348580
C 6.0 3.290056 -1.381876 -0.610632
C 6.0 3.728173 -0.655005 0.492876
C 6.0 3.080972 0.523035 0.860281
H 1.0 -3.684680 1.398120 -1.441528
H 1.0 -0.565325 2.149338 -0.042229
H 1.0 1.742773 2.533435 1.193943
H 1.0 -0.552164 0.241342 1.228488
H 1.0 -1.756627 -1.847461 1.752074
H 1.0 -3.943980 -2.332703 0.684026
H 1.0 -4.908587 -0.697609 -0.916901
H 1.0 0.703039 0.621483 -1.557627
H 1.0 1.850634 -1.480288 -2.205954
H 1.0 3.791512 -2.296470 -0.892435
H 1.0 4.572252 -1.000326 1.073495
H 1.0 3.418374 1.087723 1.721181
O 8.0 -1.430017 2.114538 -0.478889
O 8.0 1.311605 2.122958 0.436545
 $END
