!   File created by MacMolPlt 7.7.3
 $CONTRL SCFTYP=rhf RUNTYP=ENERGY MAXIT=1 $END
 $contrl ispher=1 $end
 $contrl icharg=0 mult=1 $end
 $CONTRL NPRINT=-5 $END
 $SYSTEM mwords=5000 memddi=5000 $END
 $BASIS
 GBASIS=df2tzvp !  Basis set name in the external file
 BASNAM=def2dt ! External file name, same as extbas in gms-files.*
 EXTFIL=.T. ! Tell gamess to look for an external file
 $END
 $SCF DIRSCF=.TRUE. $END
 $DATA
51
C1
C 6.0 -0.599179 -0.073947 -2.181549
H 1.0 -1.661185 -0.073904 -2.187470
C 6.0 0.612660 -0.074041 -2.178320
H 1.0 1.674686 -0.074170 -2.178517
C 6.0 -0.004809 0.054960 1.576328
H 1.0 -0.001415 0.021225 0.513031
C 6.0 -0.008746 0.093250 2.787793
H 1.0 -0.012012 0.126626 3.848705
 $END
