!   File created by MacMolPlt 7.7.3
 $CONTRL SCFTYP=rhf RUNTYP=ENERGY MAXIT=1 $END
 $contrl ispher=1 $end
 $contrl icharg=0 mult=1 $end
 $CONTRL NPRINT=-5 $END
 $SYSTEM mwords=5000 memddi=5000 $END
 $BASIS GBASIS=CCT $END
 $SCF DIRSCF=.TRUE. $END
 $DATA
12
C1
N 7.0 -0.472418 -0.617684 -0.406553
H 1.0 -0.568105 -1.586515 -0.130700
H 1.0 -1.061558 -0.504250 -1.221313
C 6.0 -0.955863 0.250395 0.673825
H 1.0 -0.851714 1.287461 0.365973
H 1.0 -1.993691 0.076991 0.964955
H 1.0 -0.323977 0.110710 1.547066
O 8.0 2.154314 0.579221 -0.301451
H 1.0 1.336797 0.082948 -0.474604
H 1.0 2.736216 0.320723 -1.017197
 $END
