!   File created by MacMolPlt 7.7.3
 $CONTRL SCFTYP=rhf RUNTYP=ENERGY MAXIT=1 $END
 $contrl ispher=1 $end
 $contrl icharg=0 mult=1 $end
 $CONTRL NPRINT=-5 $END
 $SYSTEM mwords=5000 memddi=5000 $END
 $BASIS
 GBASIS=df2svpd !  Basis set name in the external file
 BASNAM=def2dt ! External file name, same as extbas in gms-files.*
 EXTFIL=.T. ! Tell gamess to look for an external file
 $END
 $SCF DIRSCF=.TRUE. $END
 $DATA
36
C1
C 6.0 0.378774 -0.069938 -2.599776
C 6.0 -1.044388 0.397480 -2.305736
H 1.0 -1.775323 -0.280831 -2.748341
H 1.0 -1.228466 0.436404 -1.231153
H 1.0 -1.217814 1.394393 -2.713581
C 6.0 0.587099 -1.466149 -2.018694
H 1.0 1.599166 -1.822281 -2.216569
H 1.0 0.435220 -1.466077 -0.938385
H 1.0 -0.113667 -2.178015 -2.457358
C 6.0 1.374521 0.899104 -1.967522
H 1.0 2.400646 0.586110 -2.165938
H 1.0 1.240033 0.946643 -0.885962
H 1.0 1.244625 1.905691 -2.367721
C 6.0 0.598213 -0.110365 -4.109768
H 1.0 0.455464 0.877708 -4.549570
H 1.0 1.609946 -0.442791 -4.346344
H 1.0 -0.103279 -0.796881 -4.585892
C 6.0 -0.378777 0.069982 2.599817
C 6.0 1.044036 -0.398984 2.306417
H 1.0 1.228475 -0.438313 1.231897
H 1.0 1.775470 0.278689 2.749153
H 1.0 1.216299 -1.395990 2.714538
C 6.0 -0.585174 1.466544 2.018986
H 1.0 -1.597137 1.823529 2.215834
H 1.0 0.115745 2.177615 2.458708
H 1.0 -0.432064 1.466741 0.938844
C 6.0 -0.599071 0.110159 4.109670
H 1.0 -1.610287 0.444436 4.345744
H 1.0 0.103441 0.795108 4.586509
H 1.0 -0.458508 -0.878362 4.549122
C 6.0 -1.375239 -0.897795 1.966670
H 1.0 -1.246313 -1.904771 2.366249
H 1.0 -2.401129 -0.584022 2.165058
H 1.0 -1.240535 -0.944770 0.885094
 $END
