!   File created by MacMolPlt 7.7.3
 $CONTRL SCFTYP=rhf RUNTYP=ENERGY MAXIT=10 $END
 $contrl ispher=1 $end
 $contrl icharg=0 mult=1 $end
 $CONTRL NPRINT=-5 $END
 $SYSTEM mwords=5000 memddi=5000 $END
 $BASIS GBASIS=N311 NGAUSS=6 NDFUNC=3 NFFUNC=1 NPFUNC=3 $END
 $SCF DIRSCF=.TRUE. $END
 $DATA
01a
C1
N 7.0 0.000000 0.000000 -0.288533
H 1.0 -0.468067 0.810716 0.096178
H 1.0 -0.468067 -0.810716 0.096178
H 1.0 0.936134 0.000000 0.096178
 $END
