!   File created by MacMolPlt 7.7.3
 $CONTRL SCFTYP=rhf RUNTYP=ENERGY MAXIT=1 $END
 $contrl ispher=1 $end
 $contrl icharg=0 mult=1 $end
 $CONTRL NPRINT=-5 $END
 $SYSTEM mwords=5000 memddi=5000 $END
 $BASIS GBASIS=CCD $END
 $SCF DIRSCF=.TRUE. $END
 $DATA
49
C1
C 6.0 0.849324 1.082070 -2.062135
H 1.0 1.510653 1.927373 -1.928207
C 6.0 1.379757 -0.193304 -2.250429
H 1.0 2.451431 -0.337322 -2.258737
C 6.0 0.528315 -1.282893 -2.428397
H 1.0 0.939975 -2.271875 -2.576667
C 6.0 -0.853468 -1.097312 -2.415206
H 1.0 -1.514134 -1.942307 -2.553226
C 6.0 -1.383798 0.177785 -2.223976
H 1.0 -2.455470 0.321567 -2.211557
C 6.0 -0.532366 1.267573 -2.048851
H 1.0 -0.944677 2.256957 -1.904223
N 7.0 0.027365 0.376176 4.012955
C 6.0 0.182048 1.314137 3.068078
H 1.0 0.323819 2.326663 3.425980
C 6.0 0.167839 1.046847 1.701579
H 1.0 0.298079 1.847873 0.987693
C 6.0 -0.016499 -0.264782 1.276288
H 1.0 -0.033066 -0.507901 0.222940
C 6.0 -0.178348 -1.249817 2.245147
H 1.0 -0.324891 -2.285028 1.970376
C 6.0 -0.149146 -0.882483 3.588237
H 1.0 -0.272742 -1.629997 4.362338
 $END
