!   File created by MacMolPlt 7.7.3
 $CONTRL SCFTYP=rhf RUNTYP=ENERGY MAXIT=10 $END
 $contrl ispher=1 $end
 $contrl icharg=0 mult=1 $end
 $CONTRL NPRINT=-5 $END
 $SYSTEM mwords=5000 memddi=5000 $END
 $BASIS GBASIS=N311 NGAUSS=6 NDFUNC=3 NFFUNC=1 NPFUNC=3 $END
 $SCF DIRSCF=.TRUE. $END
 $DATA
29A
C1
N 7.0 1.584979 0.114259 0.278066
C 6.0 0.986159 -1.072866 0.101807
H 1.0 1.625702 -1.943940 0.167648
C 6.0 -0.377090 -1.223066 -0.140479
H 1.0 -0.796192 -2.211286 -0.265028
C 6.0 -1.173644 -0.084357 -0.208112
H 1.0 -2.236789 -0.160372 -0.390400
C 6.0 -0.569398 1.156219 -0.031822
H 1.0 -1.144590 2.070083 -0.063289
C 6.0 0.801943 1.201692 0.205704
H 1.0 1.298919 2.153635 0.345903
 $END
