!   File created by MacMolPlt 7.7.3
 $CONTRL SCFTYP=rhf RUNTYP=ENERGY MAXIT=1 $END
 $contrl ispher=1 $end
 $contrl icharg=0 mult=1 $end
 $CONTRL NPRINT=-5 $END
 $SYSTEM mwords=5000 memddi=5000 $END
 $BASIS GBASIS=N311 NGAUSS=6 NDFUNC=3 NFFUNC=1 NPFUNC=3 $END
 $SCF DIRSCF=.TRUE. $END
 $DATA
21A
C1
C 6.0 0.459100 0.347732 0.181811
O 8.0 1.043550 1.322704 0.659695
N 7.0 1.103229 -0.737389 -0.285013
H 1.0 2.123433 -0.780996 -0.252328
H 1.0 0.585223 -1.506044 -0.663775
C 6.0 -1.047869 0.323555 0.096376
H 1.0 -1.451779 0.430097 1.100064
H 1.0 -1.440578 -0.583810 -0.354919
H 1.0 -1.374308 1.184152 -0.481912
 $END
