!   File created by MacMolPlt 7.7.3
 $CONTRL SCFTYP=rhf RUNTYP=ENERGY MAXIT=1 $END
 $contrl ispher=1 $end
 $contrl icharg=0 mult=1 $end
 $CONTRL NPRINT=-5 $END
 $SYSTEM mwords=5000 memddi=5000 $END
 $BASIS GBASIS=CCD $END
 $SCF DIRSCF=.TRUE. $END
 $DATA
05a
C1
O 8.0 -1.763728 -1.965759 0.000000
O 8.0 -0.894619 2.508480 0.000000
N 7.0 0.423113 -1.289660 0.000000
N 7.0 -1.275120 0.261715 0.000000
C 6.0 0.979508 1.028249 0.000000
C 6.0 -0.425997 1.384227 0.000000
C 6.0 1.339333 -0.272652 0.000000
C 6.0 -0.925543 -1.063661 0.000000
H 1.0 1.712955 1.815937 0.000000
H 1.0 0.725856 -2.271747 0.000000
H 1.0 -2.267424 0.454457 0.000000
H 1.0 2.371667 -0.589587 0.000000
 $END
