!   File created by MacMolPlt 7.7.3
 $CONTRL SCFTYP=rhf RUNTYP=ENERGY MAXIT=10 $END
 $contrl ispher=1 $end
 $contrl icharg=0 mult=1 $end
 $CONTRL NPRINT=-5 $END
 $SYSTEM mwords=5000 memddi=5000 $END
 $BASIS
 GBASIS=df2svpd !  Basis set name in the external file
 BASNAM=def2dt ! External file name, same as extbas in gms-files.*
 EXTFIL=.T. ! Tell gamess to look for an external file
 $END
 $SCF DIRSCF=.TRUE. $END
 $DATA
03
C1
O 8.0 -2.474978 -0.777821 -0.005565
H 1.0 -2.833635 0.109862 0.026767
H 1.0 -1.513470 -0.640226 0.010563
N 7.0 0.446463 -0.562894 0.019914
H 1.0 0.741828 -1.115532 -0.774877
H 1.0 0.756544 -1.073615 0.836773
C 6.0 1.105798 0.745470 -0.020328
H 1.0 0.795256 1.327195 0.844188
H 1.0 2.197108 0.706175 -0.029283
H 1.0 0.779086 1.281387 -0.908152
 $END
