!   File created by MacMolPlt 7.7.3
 $CONTRL SCFTYP=rhf RUNTYP=ENERGY MAXIT=10 $END
 $contrl ispher=1 $end
 $contrl icharg=-1 mult=1 $end
 $CONTRL NPRINT=-5 $END
 $SYSTEM mwords=5000 memddi=5000 $END
 $BASIS
 GBASIS=df2tzvp !  Basis set name in the external file
 BASNAM=def2dt ! External file name, same as extbas in gms-files.*
 EXTFIL=.T. ! Tell gamess to look for an external file
 $END
 $SCF DIRSCF=.TRUE. $END
 $DATA
0a
C1
H 1.0 3.028759 -1.810436 -4.528097
O 8.0 2.626282 -1.777916 -3.645713
C 6.0 1.985887 -0.498484 -3.493438
H 1.0 1.300049 -0.306459 -4.327484
H 1.0 2.733607 0.305711 -3.453747
C 6.0 1.204411 -0.496854 -2.194012
H 1.0 0.823945 0.513737 -2.015662
O 8.0 0.046401 -1.388816 -2.290352
C 6.0 0.166415 -2.447903 -1.339194
H 1.0 -0.518098 -2.289820 -0.502444
N 7.0 -0.264879 -3.698258 -1.967362
C 6.0 0.461603 -4.224103 -3.011921
H 1.0 1.327779 -3.635613 -3.300331
C 6.0 0.110310 -5.365205 -3.650341
H 1.0 0.706083 -5.756039 -4.464265
C 6.0 -1.090321 -6.061627 -3.261955
O 8.0 -1.531321 -7.106453 -3.755646
N 7.0 -1.811059 -5.415770 -2.246207
H 1.0 -2.687424 -5.846590 -1.962157
C 6.0 -1.481927 -4.257142 -1.572937
O 8.0 -2.209608 -3.761821 -0.715300
C 6.0 1.995725 -0.974483 -0.976272
H 1.0 3.070100 -0.802033 -1.068303
C 6.0 1.627774 -2.457235 -0.852841
H 1.0 2.249902 -3.048556 -1.527542
O 8.0 1.786928 -2.987255 0.451897
H 1.0 1.634414 -2.253311 1.087708
O 8.0 1.495915 -0.317806 0.197530
P 15.0 2.498475 0.246328 1.378095
O 8.0 3.860969 0.491569 0.800470
O 8.0 2.291163 -0.632969 2.577329
O 8.0 1.734360 1.646833 1.702528
C 6.0 1.873632 2.736536 0.765993
H 1.0 1.899855 2.355490 -0.260407
H 1.0 2.805805 3.273956 0.968255
C 6.0 0.707826 3.684712 0.928853
H 1.0 0.916796 4.585331 0.336493
O 8.0 -0.509672 3.073364 0.419303
C 6.0 -1.623184 3.456340 1.201227
H 1.0 -2.406663 3.881300 0.570687
N 7.0 -2.201807 2.234600 1.845778
C 6.0 -1.544589 1.031861 1.859398
H 1.0 -0.578117 1.038347 1.371878
C 6.0 -2.069260 -0.077014 2.440471
H 1.0 -1.527107 -1.013195 2.435686
C 6.0 -3.360341 -0.018733 3.075459
O 8.0 -3.951847 -0.946883 3.641445
N 7.0 -3.960426 1.249272 3.009881
H 1.0 -4.874620 1.347735 3.444304
C 6.0 -3.455518 2.391175 2.427160
O 8.0 -4.057673 3.465144 2.414965
C 6.0 0.366001 4.094566 2.360962
H 1.0 0.500159 3.251168 3.044163
C 6.0 -1.123853 4.463884 2.245464
H 1.0 -1.665914 4.379881 3.192450
O 8.0 -1.254107 5.774809 1.695460
H 1.0 -0.478651 6.271628 2.027727
O 8.0 1.183763 5.200088 2.746996
H 1.0 1.216894 5.229418 3.717913
 $END
