!   File created by MacMolPlt 7.7.3
 $CONTRL SCFTYP=rhf RUNTYP=ENERGY MAXIT=1 $END
 $contrl ispher=1 $end
 $contrl icharg=0 mult=1 $end
 $CONTRL NPRINT=-5 $END
 $SYSTEM mwords=5000 memddi=5000 $END
 $BASIS GBASIS=CCT $END
 $SCF DIRSCF=.TRUE. $END
 $DATA
23
C1
C 6.0 -2.525978 -0.436427 -0.073151
O 8.0 -1.864527 0.593950 0.094089
N 7.0 -1.963831 -1.644177 -0.245809
H 1.0 -0.949404 -1.738626 -0.239854
H 1.0 -2.537464 -2.454390 -0.378210
C 6.0 -4.031496 -0.381308 -0.087414
H 1.0 -4.371226 -0.001461 0.872974
H 1.0 -4.495366 -1.345200 -0.277738
H 1.0 -4.343238 0.327425 -0.850125
N 7.0 2.901962 -0.530637 -0.051069
H 1.0 3.391992 -1.406594 -0.169008
C 6.0 3.705588 0.612208 0.099412
O 8.0 4.921150 0.516585 0.084228
C 6.0 2.932996 1.827524 0.262556
H 1.0 3.454759 2.760717 0.385591
C 6.0 1.583835 1.765849 0.256880
H 1.0 0.963431 2.642209 0.374557
N 7.0 0.898753 0.593567 0.102314
H 1.0 -0.134037 0.584506 0.101477
C 6.0 1.529643 -0.610902 -0.059946
O 8.0 0.932455 -1.674818 -0.201754
 $END
