!   File created by MacMolPlt 7.7.3
 $CONTRL SCFTYP=rhf RUNTYP=ENERGY MAXIT=1 $END
 $contrl ispher=1 $end
 $contrl icharg=-1 mult=1 $end
 $CONTRL NPRINT=-5 $END
 $SYSTEM mwords=5000 memddi=5000 $END
 $BASIS GBASIS=CCD $END
 $SCF DIRSCF=.TRUE. $END
 $DATA
1e
C1
H 1.0 5.590407 -0.355879 -2.950188
O 8.0 4.807633 -0.377020 -2.376698
C 6.0 3.650100 -0.495901 -3.219186
H 1.0 3.795999 -1.283961 -3.968080
H 1.0 3.450019 0.449927 -3.740926
C 6.0 2.439801 -0.824087 -2.376405
H 1.0 1.553142 -0.815580 -3.021745
O 8.0 2.584208 -2.162712 -1.805218
C 6.0 2.018313 -2.208402 -0.509459
H 1.0 1.325998 -3.046994 -0.424397
N 7.0 3.101630 -2.440578 0.497606
C 6.0 4.424962 -2.241167 0.204346
H 1.0 4.621924 -1.907024 -0.809454
C 6.0 5.409961 -2.437778 1.118172
H 1.0 6.446851 -2.271967 0.857038
C 6.0 5.083336 -2.870849 2.451447
O 8.0 5.877897 -3.090514 3.375828
N 7.0 3.705863 -3.035314 2.665697
H 1.0 3.417735 -3.330036 3.595242
C 6.0 2.681998 -2.841389 1.762240
O 8.0 1.494700 -3.001264 2.044294
C 6.0 2.192508 0.058026 -1.155200
H 1.0 3.134746 0.285561 -0.645891
C 6.0 1.324766 -0.862684 -0.274172
H 1.0 1.326020 -0.575683 0.781076
O 8.0 0.001497 -0.992443 -0.776818
H 1.0 -0.481625 -0.151864 -0.613866
O 8.0 1.554709 1.274768 -1.539910
P 15.0 1.660972 2.564149 -0.518449
O 8.0 1.209942 3.752368 -1.312051
O 8.0 2.982719 2.519756 0.189209
O 8.0 0.515596 2.160216 0.592042
C 6.0 -0.709734 2.910181 0.665966
H 1.0 -0.522321 3.978124 0.522563
H 1.0 -1.104986 2.736418 1.671233
C 6.0 -1.705461 2.446371 -0.376655
H 1.0 -1.331709 2.669367 -1.381762
O 8.0 -1.879101 1.003689 -0.262856
C 6.0 -3.206662 0.618420 -0.587385
H 1.0 -3.211730 -0.066864 -1.437480
N 7.0 -3.776029 -0.110198 0.588579
C 6.0 -3.069283 -0.292380 1.750489
H 1.0 -2.070862 0.123677 1.740645
C 6.0 -3.580698 -0.945417 2.823669
H 1.0 -2.993675 -1.075377 3.722988
C 6.0 -4.917902 -1.478924 2.774042
O 8.0 -5.505725 -2.090100 3.674624
N 7.0 -5.564086 -1.254131 1.548473
H 1.0 -6.510794 -1.613998 1.455260
C 6.0 -5.072368 -0.598745 0.440774
O 8.0 -5.717425 -0.457158 -0.597294
C 6.0 -3.117968 2.992739 -0.202902
H 1.0 -3.381836 3.067834 0.857858
C 6.0 -3.973455 1.913421 -0.898419
H 1.0 -5.002644 1.884525 -0.533294
O 8.0 -3.933679 2.112799 -2.310443
H 1.0 -3.845966 3.081002 -2.431029
O 8.0 -3.221137 4.262004 -0.847792
H 1.0 -3.977091 4.739039 -0.465980
 $END
