!   File created by MacMolPlt 7.7.3
 $CONTRL SCFTYP=rhf RUNTYP=ENERGY MAXIT=10 $END
 $contrl ispher=1 $end
 $contrl icharg=-1 mult=1 $end
 $CONTRL NPRINT=-5 $END
 $SYSTEM mwords=5000 memddi=5000 $END
 $BASIS
 GBASIS=df2tzvp !  Basis set name in the external file
 BASNAM=def2dt ! External file name, same as extbas in gms-files.*
 EXTFIL=.T. ! Tell gamess to look for an external file
 $END
 $SCF DIRSCF=.TRUE. $END
 $DATA
2h
C1
H 1.0 -0.637688 5.379018 1.694885
O 8.0 -0.395624 4.743736 1.002023
C 6.0 -1.476014 4.688996 0.051872
H 1.0 -1.688804 5.686887 -0.350996
H 1.0 -2.386506 4.292287 0.521157
C 6.0 -1.080818 3.761994 -1.080588
H 1.0 -1.943797 3.628910 -1.738732
O 8.0 -0.003962 4.364418 -1.870142
C 6.0 1.143975 3.522348 -1.858016
H 1.0 1.247638 2.975872 -2.798891
N 7.0 2.340886 4.366308 -1.750566
C 6.0 2.452532 5.235587 -0.689483
H 1.0 1.604519 5.224356 -0.008669
C 6.0 3.518893 6.053403 -0.519446
H 1.0 3.572776 6.726061 0.326160
C 6.0 4.592751 6.045156 -1.483692
O 8.0 5.618076 6.735370 -1.453605
N 7.0 4.379495 5.158443 -2.550251
H 1.0 5.095960 5.130460 -3.271231
C 6.0 3.309812 4.311087 -2.755812
O 8.0 3.223768 3.582799 -3.742316
C 6.0 -0.565748 2.391948 -0.623729
H 1.0 -0.927758 2.114885 0.367773
C 6.0 0.959301 2.551247 -0.674464
H 1.0 1.303762 3.017416 0.250964
O 8.0 1.672011 1.337735 -0.832477
H 1.0 1.159144 0.815149 -1.479252
O 8.0 -0.903385 1.367777 -1.587676
P 15.0 -2.260231 0.474974 -1.258231
O 8.0 -2.438836 -0.396673 -2.463561
O 8.0 -3.338995 1.374773 -0.738254
O 8.0 -1.791554 -0.420501 0.031403
C 6.0 -0.746304 -1.388919 -0.172501
H 1.0 0.157867 -0.901667 -0.554170
H 1.0 -1.081096 -2.135736 -0.901809
C 6.0 -0.404509 -2.041494 1.144662
H 1.0 -0.075058 -1.291463 1.873349
O 8.0 -1.569986 -2.727607 1.683857
C 6.0 -1.183400 -3.929482 2.325456
H 1.0 -1.514104 -3.933858 3.365484
N 7.0 -1.866165 -5.077676 1.653334
C 6.0 -2.481148 -4.961531 0.435012
H 1.0 -2.456104 -3.966566 0.009768
C 6.0 -3.092997 -6.006079 -0.177922
H 1.0 -3.574787 -5.879681 -1.138170
C 6.0 -3.117564 -7.299452 0.455980
O 8.0 -3.637206 -8.331224 0.012658
N 7.0 -2.475688 -7.324710 1.704396
H 1.0 -2.465335 -8.213933 2.197935
C 6.0 -1.845897 -6.282819 2.349721
O 8.0 -1.303100 -6.398145 3.448312
C 6.0 0.653825 -3.137672 1.009432
H 1.0 0.530127 -3.688433 0.070685
C 6.0 0.341518 -4.041752 2.218812
H 1.0 0.669206 -5.076583 2.079150
O 8.0 0.914319 -3.475955 3.395535
H 1.0 1.726744 -3.020122 3.092231
O 8.0 1.955098 -2.556708 1.094758
H 1.0 2.586165 -3.152959 0.657887
 $END
