!   File created by MacMolPlt 7.7.3
 $CONTRL SCFTYP=rhf RUNTYP=ENERGY MAXIT=1 $END
 $contrl ispher=1 $end
 $contrl icharg=0 mult=1 $end
 $CONTRL NPRINT=-5 $END
 $SYSTEM mwords=5000 memddi=5000 $END
 $BASIS
 GBASIS=df2svpd !  Basis set name in the external file
 BASNAM=def2dt ! External file name, same as extbas in gms-files.*
 EXTFIL=.T. ! Tell gamess to look for an external file
 $END
 $SCF DIRSCF=.TRUE. $END
 $DATA
01
C1
N 7.0 -1.578719 -0.046611 0.000000
N 7.0 1.578719 0.046611 0.000000
H 1.0 -2.158622 0.136396 0.809565
H 1.0 -0.849471 0.658193 0.000000
H 1.0 -2.158622 0.136396 -0.809565
H 1.0 2.158622 -0.136396 -0.809565
H 1.0 0.849471 -0.658193 0.000000
H 1.0 2.158622 -0.136396 0.809565
 $END
