!   File created by MacMolPlt 7.7.3
 $CONTRL SCFTYP=rhf RUNTYP=ENERGY MAXIT=1 $END
 $contrl ispher=1 $end
 $contrl icharg=0 mult=1 $end
 $CONTRL NPRINT=-5 $END
 $SYSTEM mwords=5000 memddi=5000 $END
 $BASIS
 GBASIS=df2tzvp !  Basis set name in the external file
 BASNAM=def2dt ! External file name, same as extbas in gms-files.*
 EXTFIL=.T. ! Tell gamess to look for an external file
 $END
 $SCF DIRSCF=.TRUE. $END
 $DATA
F22l
C1
C 6.0 -6.112898 -3.570706 0.000000
C 6.0 -5.348345 -2.235174 0.000000
C 6.0 -3.819402 -2.412141 0.000000
C 6.0 -3.055733 -1.076031 0.000000
C 6.0 -1.526553 -1.250192 0.000000
C 6.0 -0.764602 0.086954 0.000000
C 6.0 0.764602 -0.086954 0.000000
C 6.0 1.526553 1.250192 0.000000
C 6.0 3.055733 1.076031 0.000000
C 6.0 3.819402 2.412141 0.000000
C 6.0 5.348345 2.235174 0.000000
C 6.0 6.112898 3.570706 0.000000
C 6.0 7.641978 3.395079 0.000000
C 6.0 8.404718 4.731777 0.000000
C 6.0 9.933837 4.557861 0.000000
C 6.0 10.695746 5.895828 0.000000
C 6.0 12.225035 5.708598 0.000000
C 6.0 -7.641978 -3.395079 0.000000
C 6.0 -8.404718 -4.731777 0.000000
C 6.0 -9.933837 -4.557861 0.000000
C 6.0 -10.695746 -5.895828 0.000000
C 6.0 -12.225035 -5.708598 0.000000
H 1.0 -5.814856 -4.160028 0.883588
H 1.0 -5.814856 -4.160028 -0.883588
H 1.0 -5.646026 -1.645659 -0.883608
H 1.0 -5.646026 -1.645659 0.883608
H 1.0 -3.521602 -3.001560 -0.883614
H 1.0 -3.521602 -3.001560 0.883614
H 1.0 -3.354465 -0.487033 -0.883560
H 1.0 -3.354465 -0.487033 0.883560
H 1.0 -1.227469 -1.838955 -0.883608
H 1.0 -1.227469 -1.838955 0.883608
H 1.0 -1.063537 0.675827 -0.883591
H 1.0 -1.063537 0.675827 0.883591
H 1.0 1.063537 -0.675827 -0.883591
H 1.0 1.063537 -0.675827 0.883591
H 1.0 1.227469 1.838955 -0.883608
H 1.0 1.227469 1.838955 0.883608
H 1.0 3.354465 0.487033 -0.883560
H 1.0 3.354465 0.487033 0.883560
H 1.0 3.521602 3.001560 -0.883614
H 1.0 3.521602 3.001560 0.883614
H 1.0 5.646026 1.645659 -0.883608
H 1.0 5.646026 1.645659 0.883608
H 1.0 5.814856 4.160028 -0.883588
H 1.0 5.814856 4.160028 0.883588
H 1.0 7.940466 2.806136 -0.883641
H 1.0 7.940466 2.806136 0.883641
H 1.0 8.106034 5.320644 -0.883687
H 1.0 8.106034 5.320644 0.883687
H 1.0 10.233475 3.969223 -0.883742
H 1.0 10.233475 3.969223 0.883742
H 1.0 10.392962 6.481355 -0.883474
H 1.0 10.392962 6.481355 0.883474
H 1.0 12.547056 5.144782 -0.889200
H 1.0 12.750443 6.675068 0.000000
H 1.0 12.547056 5.144782 0.889200
H 1.0 -7.940466 -2.806136 -0.883641
H 1.0 -7.940466 -2.806136 0.883641
H 1.0 -8.106034 -5.320644 -0.883687
H 1.0 -8.106034 -5.320644 0.883687
H 1.0 -10.233475 -3.969223 -0.883742
H 1.0 -10.233475 -3.969223 0.883742
H 1.0 -10.392962 -6.481355 -0.883474
H 1.0 -10.392962 -6.481355 0.883474
H 1.0 -12.547056 -5.144782 -0.889200
H 1.0 -12.750443 -6.675068 0.000000
H 1.0 -12.547056 -5.144782 0.889200
 $END
