!   File created by MacMolPlt 7.7.3
 $CONTRL SCFTYP=rhf RUNTYP=ENERGY MAXIT=1 $END
 $contrl ispher=1 $end
 $contrl icharg=0 mult=1 $end
 $CONTRL NPRINT=-5 $END
 $SYSTEM mwords=5000 memddi=5000 $END
 $BASIS GBASIS=CCD $END
 $SCF DIRSCF=.TRUE. $END
 $DATA
04
C1
C 6.0 -2.018650 0.052883 0.000000
C 6.0 2.018650 -0.052883 0.000000
N 7.0 -1.407771 -1.142484 0.000000
N 7.0 1.407771 1.142484 0.000000
H 1.0 -0.387244 -1.207782 0.000000
H 1.0 -3.117062 -0.013701 0.000000
H 1.0 -1.964597 -1.977037 0.000000
H 1.0 1.964597 1.977037 0.000000
H 1.0 0.387244 1.207782 0.000000
H 1.0 3.117062 0.013701 0.000000
O 8.0 -1.452201 1.143634 0.000000
O 8.0 1.452201 -1.143634 0.000000
 $END
