!   File created by MacMolPlt 7.7.3
 $CONTRL SCFTYP=rhf RUNTYP=ENERGY MAXIT=1 $END
 $contrl ispher=1 $end
 $contrl icharg=0 mult=1 $end
 $CONTRL NPRINT=-5 $END
 $SYSTEM mwords=5000 memddi=5000 $END
 $BASIS GBASIS=CCT $END
 $SCF DIRSCF=.TRUE. $END
 $DATA
50
C1
C 6.0 0.834705 1.093648 -1.060296
H 1.0 1.483546 1.958473 -1.076599
C 6.0 1.382281 -0.188173 -1.031247
H 1.0 2.455777 -0.317495 -1.025244
C 6.0 0.545573 -1.303054 -1.004373
H 1.0 0.970011 -2.297187 -0.977427
C 6.0 -0.838574 -1.136211 -1.006741
H 1.0 -1.487460 -2.000776 -0.981606
C 6.0 -1.386070 0.145642 -1.035698
H 1.0 -2.459551 0.275251 -1.032763
C 6.0 -0.549405 1.260540 -1.062326
H 1.0 -0.974048 2.254794 -1.080143
C 6.0 0.003948 0.053942 2.488148
H 1.0 0.000939 0.036387 1.424072
C 6.0 0.007608 0.073523 3.700524
H 1.0 0.010721 0.090696 4.761721
 $END
