!   File created by MacMolPlt 7.7.3
 $CONTRL SCFTYP=rhf RUNTYP=ENERGY MAXIT=1 $END
 $contrl ispher=1 $end
 $contrl icharg=0 mult=1 $end
 $CONTRL NPRINT=-5 $END
 $SYSTEM mwords=5000 memddi=5000 $END
 $BASIS
 GBASIS=df2tzvp !  Basis set name in the external file
 BASNAM=def2dt ! External file name, same as extbas in gms-files.*
 EXTFIL=.T. ! Tell gamess to look for an external file
 $END
 $SCF DIRSCF=.TRUE. $END
 $DATA
66A
C1
N 7.0 -0.272708 -0.543421 -0.690682
H 1.0 0.323904 -1.359115 -0.611980
H 1.0 -1.201319 -0.847706 -0.428543
C 6.0 0.189551 0.469393 0.256772
H 1.0 -0.451802 1.346417 0.190293
H 1.0 0.217593 0.150826 1.303828
H 1.0 1.194781 0.783607 -0.019688
 $END
