!   File created by MacMolPlt 7.7.3
 $CONTRL SCFTYP=rhf RUNTYP=ENERGY MAXIT=1 $END
 $contrl ispher=1 $end
 $contrl icharg=0 mult=1 $end
 $CONTRL NPRINT=-5 $END
 $SYSTEM mwords=5000 memddi=5000 $END
 $BASIS GBASIS=N311 NGAUSS=6 NDFUNC=3 NFFUNC=1 NPFUNC=3 $END
 $SCF DIRSCF=.TRUE. $END
 $DATA
50A
C1
C 6.0 0.836640 1.114861 -0.029091
H 1.0 1.485480 1.979685 -0.045394
C 6.0 1.384216 -0.166961 -0.000042
H 1.0 2.457712 -0.296283 0.005961
C 6.0 0.547507 -1.281842 0.026832
H 1.0 0.971946 -2.275975 0.053778
C 6.0 -0.836639 -1.114999 0.024464
H 1.0 -1.485526 -1.979564 0.049599
C 6.0 -1.384135 0.166855 -0.004493
H 1.0 -2.457617 0.296464 -0.001558
C 6.0 -0.547470 1.281753 -0.031121
H 1.0 -0.972113 2.276006 -0.048938
 $END
