!   File created by MacMolPlt 7.7.3
 $CONTRL SCFTYP=rhf RUNTYP=ENERGY MAXIT=1 $END
 $contrl ispher=1 $end
 $contrl icharg=-1 mult=1 $end
 $CONTRL NPRINT=-5 $END
 $SYSTEM mwords=5000 memddi=5000 $END
 $BASIS
 GBASIS=df2svpd !  Basis set name in the external file
 BASNAM=def2dt ! External file name, same as extbas in gms-files.*
 EXTFIL=.T. ! Tell gamess to look for an external file
 $END
 $SCF DIRSCF=.TRUE. $END
 $DATA
aa
C1
H 1.0 3.102120 -5.076482 1.850756
O 8.0 2.665019 -4.245841 1.603984
C 6.0 1.662956 -3.963938 2.593348
H 1.0 2.072193 -4.074038 3.604714
H 1.0 0.809047 -4.646957 2.485645
C 6.0 1.154390 -2.552250 2.410185
H 1.0 0.309261 -2.390194 3.089923
O 8.0 2.214211 -1.602429 2.749297
C 6.0 2.157561 -0.471442 1.899584
H 1.0 2.133916 0.448422 2.484873
N 7.0 3.402290 -0.413253 1.074522
C 6.0 4.149094 -1.532600 0.810976
H 1.0 3.771899 -2.449973 1.253546
C 6.0 5.278864 -1.494814 0.059412
H 1.0 5.846379 -2.396179 -0.130303
C 6.0 5.739298 -0.248179 -0.494835
O 8.0 6.747648 -0.072959 -1.190908
N 7.0 4.911807 0.842397 -0.180211
H 1.0 5.185704 1.749211 -0.550086
C 6.0 3.757880 0.838836 0.576675
O 8.0 3.092745 1.850049 0.792835
C 6.0 0.754792 -2.151112 0.992526
H 1.0 1.464856 -2.551418 0.262010
C 6.0 0.897171 -0.616485 1.034641
H 1.0 1.027410 -0.177931 0.042507
O 8.0 -0.162371 0.021258 1.747819
H 1.0 -0.934051 0.103497 1.157720
O 8.0 -0.552738 -2.644998 0.714547
P 15.0 -1.127633 -2.565863 -0.828488
O 8.0 -2.083437 -3.710431 -0.969412
O 8.0 -0.007947 -2.308274 -1.787276
O 8.0 -1.975109 -1.156436 -0.753886
C 6.0 -3.124138 -1.107071 0.118817
H 1.0 -2.819560 -1.307561 1.152429
H 1.0 -3.857738 -1.861080 -0.185690
C 6.0 -3.738304 0.265415 0.011465
H 1.0 -4.642885 0.297779 0.631716
O 8.0 -2.779253 1.238685 0.522437
C 6.0 -2.908541 2.471991 -0.174318
H 1.0 -3.089878 3.291190 0.521429
N 7.0 -1.626098 2.773591 -0.866209
C 6.0 -0.778792 1.779915 -1.289099
H 1.0 -1.108667 0.770737 -1.065327
C 6.0 0.382355 2.037547 -1.938765
H 1.0 1.031658 1.232577 -2.255831
C 6.0 0.759993 3.397441 -2.229932
O 8.0 1.782330 3.773788 -2.813152
N 7.0 -0.187834 4.344066 -1.804646
H 1.0 0.016352 5.319524 -2.007655
C 6.0 -1.374445 4.115181 -1.142397
O 8.0 -2.156970 5.012984 -0.832007
C 6.0 -4.063859 0.775992 -1.390384
H 1.0 -3.282069 0.482562 -2.097367
C 6.0 -4.059318 2.300324 -1.175603
H 1.0 -3.885552 2.869676 -2.095021
O 8.0 -5.272899 2.701813 -0.542010
H 1.0 -5.963244 2.106044 -0.897118
O 8.0 -5.332915 0.266505 -1.796382
H 1.0 -5.384956 0.311189 -2.766021
 $END
