!   File created by MacMolPlt 7.7.3
 $CONTRL SCFTYP=rhf RUNTYP=ENERGY MAXIT=1 $END
 $contrl ispher=1 $end
 $contrl icharg=0 mult=1 $end
 $CONTRL NPRINT=-5 $END
 $SYSTEM mwords=5000 memddi=5000 $END
 $BASIS
 GBASIS=df2svpd !  Basis set name in the external file
 BASNAM=def2dt ! External file name, same as extbas in gms-files.*
 EXTFIL=.T. ! Tell gamess to look for an external file
 $END
 $SCF DIRSCF=.TRUE. $END
 $DATA
41
C1
N 7.0 -0.186042 -1.123814 -2.014437
H 1.0 -0.201289 -2.132340 -1.944114
C 6.0 -1.423480 -0.503812 -2.242539
O 8.0 -2.438374 -1.170023 -2.351306
C 6.0 -1.334920 0.943955 -2.321054
H 1.0 -2.233710 1.508500 -2.499350
C 6.0 -0.140141 1.550662 -2.168071
H 1.0 -0.023428 2.623215 -2.215848
N 7.0 1.008314 0.841593 -1.937991
H 1.0 1.890422 1.307697 -1.804413
C 6.0 1.049883 -0.538401 -1.836550
O 8.0 2.072059 -1.156626 -1.611938
C 6.0 1.164275 2.197801 1.507881
H 1.0 0.733426 2.508849 0.555098
H 1.0 0.530041 2.603234 2.296128
H 1.0 2.147155 2.658248 1.601002
C 6.0 1.237291 0.678930 1.597399
H 1.0 1.667675 0.389367 2.558690
H 1.0 1.911881 0.287769 0.832281
C 6.0 -0.127494 0.020763 1.442582
H 1.0 -0.798738 0.389639 2.224201
H 1.0 -0.574965 0.331028 0.492682
C 6.0 -0.071205 -1.499924 1.502218
H 1.0 0.352401 -1.802354 2.462854
H 1.0 0.620317 -1.861803 0.737715
C 6.0 -1.440488 -2.141797 1.318444
H 1.0 -1.878867 -1.868339 0.358258
H 1.0 -1.383549 -3.228565 1.362501
H 1.0 -2.128451 -1.813451 2.097677
 $END
