!   File created by MacMolPlt 7.7.3
 $CONTRL SCFTYP=rhf RUNTYP=ENERGY MAXIT=1 $END
 $contrl ispher=1 $end
 $contrl icharg=0 mult=1 $end
 $CONTRL NPRINT=-5 $END
 $SYSTEM mwords=5000 memddi=5000 $END
 $BASIS GBASIS=CCT $END
 $SCF DIRSCF=.TRUE. $END
 $DATA
03a
C1
C 6.0 -0.282710 -0.294847 0.000000
O 8.0 0.112906 0.958535 0.000000
O 8.0 0.435752 -1.281745 0.000000
H 1.0 -1.373302 -0.373984 0.000000
H 1.0 1.107354 0.992041 0.000000
 $END
