!   File created by MacMolPlt 7.7.3
 $CONTRL SCFTYP=rhf RUNTYP=ENERGY MAXIT=10 $END
 $contrl ispher=1 $end
 $contrl icharg=0 mult=1 $end
 $CONTRL NPRINT=-5 $END
 $SYSTEM mwords=5000 memddi=5000 $END
 $BASIS
 GBASIS=df2tzvp !  Basis set name in the external file
 BASNAM=def2dt ! External file name, same as extbas in gms-files.*
 EXTFIL=.T. ! Tell gamess to look for an external file
 $END
 $SCF DIRSCF=.TRUE. $END
 $DATA
22A
C1
C 6.0 0.546489 0.191180 0.032142
O 8.0 1.193033 1.213548 0.218513
O 8.0 1.082026 -0.998919 -0.193407
H 1.0 2.073436 -0.932583 -0.187538
C 6.0 -0.951309 0.150350 0.034336
H 1.0 -1.346534 1.141046 0.222765
H 1.0 -1.304141 -0.220581 -0.925026
H 1.0 -1.292999 -0.544041 0.798215
 $END
