!   File created by MacMolPlt 7.7.3
 $CONTRL SCFTYP=rhf RUNTYP=ENERGY MAXIT=1 $END
 $contrl ispher=1 $end
 $contrl icharg=0 mult=1 $end
 $CONTRL NPRINT=-5 $END
 $SYSTEM mwords=5000 memddi=5000 $END
 $BASIS GBASIS=N311 NGAUSS=6 NDFUNC=3 NFFUNC=1 NPFUNC=3 $END
 $SCF DIRSCF=.TRUE. $END
 $DATA
07b
C1
N 7.0 -0.342309 1.763553 0.000000
N 7.0 1.653326 0.611228 0.000000
C 6.0 -0.412875 -0.619258 0.000000
C 6.0 1.042801 -0.629459 0.000000
C 6.0 -1.034852 0.580723 0.000000
C 6.0 1.039338 1.843551 0.000000
C 6.0 -1.131784 -1.926913 0.000000
O 8.0 1.711492 -1.664859 0.000000
O 8.0 1.637262 2.904782 0.000000
H 1.0 -0.822886 2.647665 0.000000
H 1.0 2.695202 0.625860 0.000000
H 1.0 -2.112145 0.669690 0.000000
H 1.0 -0.856474 -2.514346 -0.874772
H 1.0 -0.856474 -2.514346 0.874772
H 1.0 -2.209620 -1.777871 0.000000
 $END
