!   File created by MacMolPlt 7.7.3
 $CONTRL SCFTYP=rhf RUNTYP=ENERGY MAXIT=1 $END
 $contrl ispher=1 $end
 $contrl icharg=0 mult=1 $end
 $CONTRL NPRINT=-5 $END
 $SYSTEM mwords=5000 memddi=5000 $END
 $BASIS GBASIS=N311 NGAUSS=6 NDFUNC=3 NFFUNC=1 NPFUNC=3 $END
 $SCF DIRSCF=.TRUE. $END
 $DATA
11
C1
C 6.0 -1.047826 -1.421674 0.000000
C 6.0 -1.454504 -0.855446 1.206205
C 6.0 -1.454504 -0.855446 -1.206205
C 6.0 -2.266798 0.277161 1.206954
C 6.0 -2.671479 0.845021 0.000000
C 6.0 -2.266798 0.277161 -1.206954
C 6.0 1.047826 1.421674 0.000000
C 6.0 1.454504 0.855446 -1.206205
C 6.0 1.454504 0.855446 1.206205
C 6.0 2.266798 -0.277161 -1.206954
C 6.0 2.671479 -0.845021 0.000000
C 6.0 2.266798 -0.277161 1.206954
H 1.0 -1.133854 -1.292060 -2.142316
H 1.0 -2.582495 0.716307 -2.143799
H 1.0 -3.303043 1.723271 0.000000
H 1.0 -2.582495 0.716307 2.143799
H 1.0 -1.133854 -1.292060 2.142316
H 1.0 -0.406025 -2.291906 0.000000
H 1.0 0.406025 2.291906 0.000000
H 1.0 1.133854 1.292060 2.142316
H 1.0 2.582495 -0.716307 2.143799
H 1.0 3.303043 -1.723271 0.000000
H 1.0 2.582495 -0.716307 -2.143799
H 1.0 1.133854 1.292060 -2.142316
 $END
