!   File created by MacMolPlt 7.7.3
 $CONTRL SCFTYP=rhf RUNTYP=ENERGY MAXIT=10 $END
 $contrl ispher=1 $end
 $contrl icharg=0 mult=1 $end
 $CONTRL NPRINT=-5 $END
 $SYSTEM mwords=5000 memddi=5000 $END
 $BASIS
 GBASIS=df2tzvp !  Basis set name in the external file
 BASNAM=def2dt ! External file name, same as extbas in gms-files.*
 EXTFIL=.T. ! Tell gamess to look for an external file
 $END
 $SCF DIRSCF=.TRUE. $END
 $DATA
22b
C1
C 6.0 -0.712801 -0.868697 0.000000
C 6.0 -1.283104 0.401491 0.000000
C 6.0 -0.454034 1.518505 0.000000
C 6.0 0.932574 1.374158 0.000000
C 6.0 1.490512 0.098728 0.000000
C 6.0 0.669692 -1.027272 0.000000
H 1.0 -1.050680 -2.754598 0.000000
H 1.0 -2.359712 0.500222 0.000000
H 1.0 -0.897514 2.504398 0.000000
H 1.0 1.570632 2.246071 0.000000
H 1.0 2.564298 -0.027045 0.000000
H 1.0 1.102489 -2.020514 0.000000
O 8.0 -1.572353 -1.945448 0.000000
 $END
