!   File created by MacMolPlt 7.7.3
 $CONTRL SCFTYP=rhf RUNTYP=ENERGY MAXIT=10 $END
 $contrl ispher=1 $end
 $contrl icharg=0 mult=1 $end
 $CONTRL NPRINT=-5 $END
 $SYSTEM mwords=5000 memddi=5000 $END
 $BASIS GBASIS=CCT $END
 $SCF DIRSCF=.TRUE. $END
 $DATA
21b
C1
C 6.0 1.207401 0.697093 0.000000
C 6.0 1.207401 -0.697093 0.000000
C 6.0 0.000000 -1.394187 0.000000
C 6.0 -1.207401 -0.697093 0.000000
C 6.0 -1.207401 0.697093 0.000000
C 6.0 0.000000 1.394187 0.000000
H 1.0 2.143881 1.237770 0.000000
H 1.0 2.143881 -1.237770 0.000000
H 1.0 0.000000 -2.475541 0.000000
H 1.0 -2.143881 -1.237770 0.000000
H 1.0 -2.143881 1.237770 0.000000
H 1.0 0.000000 2.475541 0.000000
 $END
