!   File created by MacMolPlt 7.7.3
 $CONTRL SCFTYP=rhf RUNTYP=ENERGY MAXIT=10 $END
 $contrl ispher=1 $end
 $contrl icharg=0 mult=1 $end
 $CONTRL NPRINT=-5 $END
 $SYSTEM mwords=5000 memddi=5000 $END
 $BASIS GBASIS=CCD $END
 $SCF DIRSCF=.TRUE. $END
 $DATA
57A
C1
C 6.0 0.777738 1.157625 -0.009409
H 1.0 1.380897 2.055145 -0.016867
C 6.0 1.388126 -0.093170 -0.095892
H 1.0 2.464529 -0.165234 -0.167754
C 6.0 0.610680 -1.250283 -0.088255
H 1.0 1.084174 -2.219989 -0.156873
C 6.0 -0.777222 -1.157658 0.008957
H 1.0 -1.380224 -2.055327 0.014465
C 6.0 -1.388320 0.092640 0.098007
H 1.0 -2.464556 0.164843 0.174094
C 6.0 -0.610728 1.250806 0.087338
H 1.0 -1.085094 2.220601 0.152191
 $END
