!   File created by MacMolPlt 7.7.3
 $CONTRL SCFTYP=rhf RUNTYP=ENERGY MAXIT=10 $END
 $contrl ispher=1 $end
 $contrl icharg=0 mult=1 $end
 $CONTRL NPRINT=-5 $END
 $SYSTEM mwords=5000 memddi=5000 $END
 $BASIS
 GBASIS=df2svpd !  Basis set name in the external file
 BASNAM=def2dt ! External file name, same as extbas in gms-files.*
 EXTFIL=.T. ! Tell gamess to look for an external file
 $END
 $SCF DIRSCF=.TRUE. $END
 $DATA
36A
C1
C 6.0 -0.000095 0.000050 0.000713
C 6.0 -1.423256 0.467468 0.294753
H 1.0 -2.154192 -0.210843 -0.147853
H 1.0 -1.607335 0.506392 1.369336
H 1.0 -1.596683 1.464381 -0.113092
C 6.0 0.208231 -1.396161 0.581795
H 1.0 1.220297 -1.752293 0.383920
H 1.0 0.056352 -1.396089 1.662104
H 1.0 -0.492536 -2.108027 0.143131
C 6.0 0.995652 0.969092 0.632967
H 1.0 2.021777 0.656098 0.434551
H 1.0 0.861164 1.016631 1.714527
H 1.0 0.865756 1.975679 0.232768
C 6.0 0.219344 -0.040377 -1.509279
H 1.0 0.076595 0.947696 -1.949081
H 1.0 1.231077 -0.372803 -1.745855
H 1.0 -0.482148 -0.726893 -1.985404
 $END
