!   File created by MacMolPlt 7.7.3
 $CONTRL SCFTYP=rhf RUNTYP=ENERGY MAXIT=10 $END
 $contrl ispher=1 $end
 $contrl icharg=0 mult=1 $end
 $CONTRL NPRINT=-5 $END
 $SYSTEM mwords=5000 memddi=5000 $END
 $BASIS
 GBASIS=df2svpd !  Basis set name in the external file
 BASNAM=def2dt ! External file name, same as extbas in gms-files.*
 EXTFIL=.T. ! Tell gamess to look for an external file
 $END
 $SCF DIRSCF=.TRUE. $END
 $DATA
65
C1
N 7.0 0.077052 0.000687 0.126269
C 6.0 -0.042769 -1.141754 -0.563997
H 1.0 0.061599 -2.055126 0.008502
C 6.0 -0.286697 -1.191791 -1.933443
H 1.0 -0.373565 -2.145883 -2.433103
C 6.0 -0.414598 0.003412 -2.633241
H 1.0 -0.603599 0.004452 -3.697658
C 6.0 -0.293372 1.197215 -1.929848
H 1.0 -0.385546 2.152245 -2.426726
C 6.0 -0.049227 1.144480 -0.560564
H 1.0 0.049917 2.056670 0.014643
C 6.0 0.631921 -0.006086 4.612788
H 1.0 0.747331 -0.005512 5.667802
C 6.0 0.499851 -0.006636 3.406541
H 1.0 0.381703 -0.006373 2.342035
 $END
