!   File created by MacMolPlt 7.7.3
 $CONTRL SCFTYP=rhf RUNTYP=ENERGY MAXIT=10 $END
 $contrl ispher=1 $end
 $contrl icharg=0 mult=1 $end
 $CONTRL NPRINT=-5 $END
 $SYSTEM mwords=5000 memddi=5000 $END
 $BASIS
 GBASIS=df2tzvp !  Basis set name in the external file
 BASNAM=def2dt ! External file name, same as extbas in gms-files.*
 EXTFIL=.T. ! Tell gamess to look for an external file
 $END
 $SCF DIRSCF=.TRUE. $END
 $DATA
48A
C1
N 7.0 1.532958 -0.007753 0.496943
C 6.0 0.861481 -1.146369 0.274560
H 1.0 1.410614 -2.062905 0.451432
C 6.0 -0.462486 -1.192089 -0.155584
H 1.0 -0.946998 -2.144698 -0.315777
C 6.0 -1.137002 0.005757 -0.370097
H 1.0 -2.165161 0.011028 -0.704534
C 6.0 -0.454363 1.196714 -0.143239
H 1.0 -0.932431 2.154181 -0.293520
C 6.0 0.869091 1.137602 0.286619
H 1.0 1.424298 2.048533 0.473197
 $END
