!   File created by MacMolPlt 7.7.3
 $CONTRL SCFTYP=rhf RUNTYP=ENERGY MAXIT=1 $END
 $contrl ispher=1 $end
 $contrl icharg=0 mult=1 $end
 $CONTRL NPRINT=-5 $END
 $SYSTEM mwords=5000 memddi=5000 $END
 $BASIS
 GBASIS=df2tzvp !  Basis set name in the external file
 BASNAM=def2dt ! External file name, same as extbas in gms-files.*
 EXTFIL=.T. ! Tell gamess to look for an external file
 $END
 $SCF DIRSCF=.TRUE. $END
 $DATA
21
C1
C 6.0 -2.044706 0.058052 -0.079642
O 8.0 -1.460256 1.033023 0.398241
N 7.0 -1.400577 -1.027070 -0.546466
H 1.0 -0.380373 -1.070676 -0.513781
H 1.0 -1.918583 -1.795724 -0.925228
C 6.0 -3.551675 0.033874 -0.165078
H 1.0 -3.955585 0.140417 0.838610
H 1.0 -3.944383 -0.873491 -0.616372
H 1.0 -3.878114 0.894471 -0.743365
C 6.0 2.044646 -0.058239 0.079885
O 8.0 1.460224 -1.032259 -0.399846
N 7.0 1.400558 1.026504 0.547732
H 1.0 0.380453 1.070942 0.513431
H 1.0 1.918583 1.794465 0.927853
C 6.0 3.551645 -0.033955 0.165110
H 1.0 3.943516 0.865695 0.632294
H 1.0 3.955201 -0.121500 -0.840670
H 1.0 3.879424 -0.904529 0.727291
 $END
