!   File created by MacMolPlt 7.7.3
 $CONTRL SCFTYP=rhf RUNTYP=ENERGY MAXIT=1 $END
 $contrl ispher=1 $end
 $contrl icharg=0 mult=1 $end
 $CONTRL NPRINT=-5 $END
 $SYSTEM mwords=5000 memddi=5000 $END
 $BASIS
 GBASIS=df2svpd !  Basis set name in the external file
 BASNAM=def2dt ! External file name, same as extbas in gms-files.*
 EXTFIL=.T. ! Tell gamess to look for an external file
 $END
 $SCF DIRSCF=.TRUE. $END
 $DATA
46
C1
C 6.0 1.412857 0.861261 -2.018846
H 1.0 0.992842 1.862833 -1.956553
H 1.0 1.988088 0.775299 -2.938953
H 1.0 2.092368 0.700608 -1.186718
C 6.0 0.367403 -0.228864 -2.001472
O 8.0 0.659487 -1.403698 -1.818389
N 7.0 -0.909363 0.193670 -2.215756
H 1.0 -1.064005 1.170809 -2.383558
C 6.0 -2.019188 -0.728586 -2.309517
H 1.0 -1.628690 -1.718013 -2.092486
H 1.0 -2.793926 -0.482597 -1.586009
H 1.0 -2.450304 -0.730142 -3.309610
C 6.0 2.701332 0.311529 1.863676
H 1.0 2.818171 1.065945 1.084931
H 1.0 2.615221 0.836415 2.815332
H 1.0 3.613423 -0.282713 1.890484
C 6.0 1.473060 -0.551859 1.606124
H 1.0 1.378490 -1.297313 2.399175
H 1.0 1.589480 -1.105323 0.672281
C 6.0 0.190522 0.266755 1.540823
H 1.0 0.078951 0.844490 2.463907
H 1.0 0.269756 0.999570 0.731170
C 6.0 -1.053835 -0.583580 1.323943
H 1.0 -1.144637 -1.298067 2.145360
H 1.0 -0.926028 -1.172518 0.413729
C 6.0 -2.320673 0.256711 1.233828
H 1.0 -2.253760 0.963762 0.406059
H 1.0 -3.206015 -0.359306 1.079996
H 1.0 -2.471029 0.832922 2.147048
 $END
