!   File created by MacMolPlt 7.7.3
 $CONTRL SCFTYP=rhf RUNTYP=ENERGY MAXIT=10 $END
 $contrl ispher=1 $end
 $contrl icharg=0 mult=1 $end
 $CONTRL NPRINT=-5 $END
 $SYSTEM mwords=5000 memddi=5000 $END
 $BASIS
 GBASIS=df2svpd !  Basis set name in the external file
 BASNAM=def2dt ! External file name, same as extbas in gms-files.*
 EXTFIL=.T. ! Tell gamess to look for an external file
 $END
 $SCF DIRSCF=.TRUE. $END
 $DATA
43
C1
N 7.0 0.622035 -1.001218 -2.206685
H 1.0 0.405144 -1.961806 -1.978200
C 6.0 -0.436502 -0.237642 -2.717937
O 8.0 -1.534817 -0.738709 -2.889008
C 6.0 -0.070920 1.140969 -2.992964
H 1.0 -0.813789 1.801505 -3.405441
C 6.0 1.179496 1.567629 -2.722068
H 1.0 1.497804 2.583565 -2.902768
N 7.0 2.130084 0.736296 -2.193519
H 1.0 3.051290 1.073596 -1.969173
C 6.0 1.898737 -0.593484 -1.884289
O 8.0 2.739761 -1.314229 -1.384014
C 6.0 -0.627748 -0.180024 1.719288
C 6.0 -1.944494 0.561265 1.934161
H 1.0 -2.651566 -0.056941 2.489023
H 1.0 -1.784995 1.481450 2.498346
H 1.0 -2.402204 0.822762 0.979007
C 6.0 -0.012311 -0.533462 3.070566
H 1.0 0.930851 -1.065835 2.939784
H 1.0 0.184710 0.366280 3.655368
H 1.0 -0.683605 -1.171199 3.647302
C 6.0 0.337376 0.713454 0.943499
H 1.0 1.285947 0.200859 0.773145
H 1.0 0.542666 1.631591 1.496925
H 1.0 -0.085019 0.991941 -0.023965
C 6.0 -0.889065 -1.460058 0.928923
H 1.0 -1.352804 -1.238224 -0.033701
H 1.0 0.043511 -1.998457 0.749287
H 1.0 -1.559573 -2.121872 1.479108
 $END
