!   File created by MacMolPlt 7.7.3
 $CONTRL SCFTYP=rhf RUNTYP=ENERGY MAXIT=1 $END
 $contrl ispher=1 $end
 $contrl icharg=0 mult=1 $end
 $CONTRL NPRINT=-5 $END
 $SYSTEM mwords=5000 memddi=5000 $END
 $BASIS GBASIS=CCT $END
 $SCF DIRSCF=.TRUE. $END
 $DATA
20B
C1
C 6.0 -0.554398 -0.153347 -0.040322
O 8.0 -1.258016 -1.126661 -0.280109
O 8.0 -1.026824 1.049088 0.247457
H 1.0 -2.020613 1.016190 0.233056
C 6.0 0.942314 -0.199250 -0.042286
H 1.0 1.279894 -1.200569 -0.279811
H 1.0 1.323813 0.511103 -0.771755
H 1.0 1.313831 0.103445 0.933769
 $END
