!   File created by MacMolPlt 7.7.3
 $CONTRL SCFTYP=rhf RUNTYP=ENERGY MAXIT=1 $END
 $contrl ispher=1 $end
 $contrl icharg=0 mult=1 $end
 $CONTRL NPRINT=-5 $END
 $SYSTEM mwords=5000 memddi=5000 $END
 $BASIS
 GBASIS=df2svpd !  Basis set name in the external file
 BASNAM=def2dt ! External file name, same as extbas in gms-files.*
 EXTFIL=.T. ! Tell gamess to look for an external file
 $END
 $SCF DIRSCF=.TRUE. $END
 $DATA
34A
C1
C 6.0 -2.533317 -0.301550 0.012734
H 1.0 -2.563636 -0.983753 -0.836838
H 1.0 -2.566987 -0.902547 0.921317
H 1.0 -3.434435 0.309286 -0.016311
C 6.0 -1.271894 0.550985 -0.026060
H 1.0 -1.271035 1.249895 0.813904
H 1.0 -1.266641 1.161225 -0.932242
C 6.0 -0.000144 -0.285089 0.019188
H 1.0 -0.000168 -0.893900 0.928222
H 1.0 -0.000374 -0.987385 -0.819819
C 6.0 1.271886 0.550711 -0.026354
H 1.0 1.270963 1.249963 0.813290
H 1.0 1.266628 1.160512 -0.932802
C 6.0 2.533395 -0.301613 0.012865
H 1.0 2.563910 -0.984445 -0.836193
H 1.0 3.434301 0.309584 -0.016816
H 1.0 2.567549 -0.901880 0.921914
 $END
