!   File created by MacMolPlt 7.7.3
 $CONTRL SCFTYP=rhf RUNTYP=ENERGY MAXIT=1 $END
 $contrl ispher=1 $end
 $contrl icharg=0 mult=1 $end
 $CONTRL NPRINT=-5 $END
 $SYSTEM mwords=5000 memddi=5000 $END
 $BASIS GBASIS=CCD $END
 $SCF DIRSCF=.TRUE. $END
 $DATA
05A
C1
O 8.0 0.267447 1.036194 0.243833
H 1.0 1.211680 1.012398 0.039697
C 6.0 -0.248483 -0.251811 -0.021507
H 1.0 -1.306363 -0.236789 0.227189
H 1.0 -0.153028 -0.533195 -1.072957
H 1.0 0.228747 -1.026796 0.583745
 $END
