!   File created by MacMolPlt 7.7.3
 $CONTRL SCFTYP=rhf RUNTYP=ENERGY MAXIT=1 $END
 $contrl ispher=1 $end
 $contrl icharg=0 mult=1 $end
 $CONTRL NPRINT=-5 $END
 $SYSTEM mwords=5000 memddi=5000 $END
 $BASIS GBASIS=CCD $END
 $SCF DIRSCF=.TRUE. $END
 $DATA
13B
C1
O 8.0 -0.523143 0.942232 -0.199853
H 1.0 0.197712 1.569532 -0.109438
C 6.0 -0.004058 -0.363134 0.034029
H 1.0 -0.836630 -1.051921 -0.071548
H 1.0 0.762080 -0.632126 -0.692852
H 1.0 0.404039 -0.464583 1.039663
 $END
