!   File created by MacMolPlt 7.7.3
 $CONTRL SCFTYP=rhf RUNTYP=ENERGY MAXIT=1 $END
 $contrl ispher=1 $end
 $contrl icharg=-1 mult=1 $end
 $CONTRL NPRINT=-5 $END
 $SYSTEM mwords=5000 memddi=5000 $END
 $BASIS GBASIS=CCT $END
 $SCF DIRSCF=.TRUE. $END
 $DATA
0b
C1
H 1.0 -2.800128 -4.181501 1.196954
O 8.0 -2.425973 -3.507205 0.607307
C 6.0 -1.832577 -2.481827 1.422821
H 1.0 -1.121250 -2.915518 2.136193
H 1.0 -2.605434 -1.934304 1.980477
C 6.0 -1.100383 -1.509799 0.518851
H 1.0 -0.744346 -0.668059 1.121194
O 8.0 0.079435 -2.160505 -0.050841
C 6.0 0.004044 -2.173872 -1.471640
H 1.0 0.673976 -1.435685 -1.918203
N 7.0 0.477871 -3.479875 -1.943394
C 6.0 -0.104197 -4.623196 -1.447213
H 1.0 -0.883400 -4.445455 -0.709984
C 6.0 0.274792 -5.864820 -1.832654
H 1.0 -0.200165 -6.745545 -1.421562
C 6.0 1.333856 -6.022126 -2.797561
O 8.0 1.778592 -7.089588 -3.237243
N 7.0 1.881965 -4.807447 -3.236426
H 1.0 2.641759 -4.866665 -3.909722
C 6.0 1.521966 -3.526318 -2.867266
O 8.0 2.077147 -2.526002 -3.315965
C 6.0 -1.922182 -0.997672 -0.670612
H 1.0 -2.998085 -1.035895 -0.492352
C 6.0 -1.467961 -1.885918 -1.835964
H 1.0 -2.038715 -2.817413 -1.832664
O 8.0 -1.628634 -1.282118 -3.106478
H 1.0 -1.465381 -0.327252 -2.961566
O 8.0 -1.537823 0.344355 -1.012211
P 15.0 -2.549306 1.640043 -0.823795
O 8.0 -3.897417 1.150462 -0.385086
O 8.0 -2.345316 2.498890 -2.030736
O 8.0 -1.801336 2.425377 0.402823
C 6.0 -2.100954 2.044069 1.762660
H 1.0 -2.126954 0.953439 1.858634
H 1.0 -3.078347 2.442219 2.054587
C 6.0 -1.022923 2.610319 2.664105
H 1.0 -1.274575 2.359882 3.700588
O 8.0 0.257360 1.985179 2.353538
C 6.0 1.221462 2.979629 2.026586
H 1.0 1.893263 3.193283 2.861562
N 7.0 2.063377 2.442283 0.948846
C 6.0 1.467260 1.835735 -0.131709
H 1.0 0.385376 1.789343 -0.078715
C 6.0 2.174589 1.320315 -1.165098
H 1.0 1.675928 0.848820 -2.000746
C 6.0 3.613729 1.404305 -1.162695
O 8.0 4.380751 0.980932 -2.034962
N 7.0 4.135394 2.049192 -0.029879
H 1.0 5.146961 2.141429 0.016919
C 6.0 3.447646 2.583581 1.040803
O 8.0 4.013422 3.134319 1.983313
C 6.0 -0.816886 4.125973 2.539016
H 1.0 -1.691533 4.629640 2.122894
C 6.0 0.408981 4.229686 1.619211
H 1.0 0.093485 4.126014 0.577878
O 8.0 1.117260 5.447264 1.748840
H 1.0 0.999431 5.714463 2.683251
O 8.0 -0.440606 4.720535 3.793823
H 1.0 -1.218291 5.160605 4.171269
 $END
