!   File created by MacMolPlt 7.7.3
 $CONTRL SCFTYP=rhf RUNTYP=ENERGY MAXIT=1 $END
 $contrl ispher=1 $end
 $contrl icharg=0 mult=1 $end
 $CONTRL NPRINT=-5 $END
 $SYSTEM mwords=5000 memddi=5000 $END
 $BASIS GBASIS=CCT $END
 $SCF DIRSCF=.TRUE. $END
 $DATA
37B
C1
C 6.0 -0.000210 -0.000402 -0.001665
C 6.0 -0.096554 -0.152488 1.513975
H 1.0 0.895992 -0.167955 1.966332
H 1.0 -0.655479 0.675396 1.952410
H 1.0 -0.603719 -1.081154 1.779325
C 6.0 0.713843 1.306503 -0.337290
H 1.0 0.795363 1.440002 -1.416972
H 1.0 0.170371 2.161191 0.068211
H 1.0 1.721448 1.317153 0.080943
C 6.0 -1.405222 0.019422 -0.598985
H 1.0 -1.368290 0.136612 -1.682834
H 1.0 -1.987521 0.846846 -0.190639
H 1.0 -1.935125 -0.908365 -0.377655
C 6.0 0.787690 -1.173887 -0.579003
H 1.0 0.292470 -2.120878 -0.358760
H 1.0 0.882533 -1.086704 -1.662138
H 1.0 1.792408 -1.211292 -0.155255
 $END
