!   File created by MacMolPlt 7.7.3
 $CONTRL SCFTYP=rhf RUNTYP=ENERGY MAXIT=1 $END
 $contrl ispher=1 $end
 $contrl icharg=0 mult=1 $end
 $CONTRL NPRINT=-5 $END
 $SYSTEM mwords=5000 memddi=5000 $END
 $BASIS GBASIS=N311 NGAUSS=6 NDFUNC=3 NFFUNC=1 NPFUNC=3 $END
 $SCF DIRSCF=.TRUE. $END
 $DATA
48
C1
N 7.0 1.449573 -0.005665 -1.864359
C 6.0 0.778096 -1.144281 -2.086741
H 1.0 1.327229 -2.060817 -1.909870
C 6.0 -0.545871 -1.190001 -2.516885
H 1.0 -1.030383 -2.142611 -2.677078
C 6.0 -1.220386 0.007845 -2.731398
H 1.0 -2.248546 0.013116 -3.065835
C 6.0 -0.537748 1.198801 -2.504540
H 1.0 -1.015816 2.156268 -2.654822
C 6.0 0.785706 1.139689 -2.074683
H 1.0 1.340913 2.050621 -1.888104
N 7.0 0.576925 0.006012 3.897417
C 6.0 1.447593 0.000399 2.878004
H 1.0 2.495450 0.001648 3.152307
C 6.0 1.074208 -0.006669 1.536176
H 1.0 1.821668 -0.010833 0.755077
C 6.0 -0.281841 -0.008083 1.223761
H 1.0 -0.611569 -0.013538 0.193479
C 6.0 -1.199944 -0.002368 2.268930
H 1.0 -2.264394 -0.003217 2.080195
C 6.0 -0.724340 0.004550 3.577889
H 1.0 -1.416524 0.009133 4.411080
 $END
