 $CONTRL SCFTYP=rhf RUNTYP=ENERGY MAXIT=1 $END 
 $contrl ispher=1 $end
 $contrl icharg=0 mult=1 $end
 $CONTRL NPRINT=-5 $END
 $SYSTEM mwords=5000 memddi=5000 $END
 $BASIS GBASIS=CCT $END
 $SCF DIRSCF=.TRUE. $END
 $DATA
 water molecules
C1
H     1.0     1.15358400     2.60319090    -1.50718606
H     1.0     0.38879499     1.34015000    -0.80957502
O     8.0     1.16229403     1.61094797    -1.38271201
H     1.0     3.27225208    -1.84825504     1.89908600
H     1.0     4.17702484    -3.09371400     1.35406005
O     8.0     4.03177881    -2.10564995     1.30160606
H     1.0    -4.32711411     0.86513299    -1.83386302
H     1.0    -2.78300405     1.38737500    -1.73474205
O     8.0    -3.73261404     1.66829002    -1.87418902
H     1.0     3.44421005     2.42034292    -5.82544899
H     1.0     5.02956009     2.03113604    -5.87039614
O     8.0     4.17814398     2.04961300    -6.39467382
H     1.0    -2.40915108    -3.92982888    -0.83373302
H     1.0    -3.26785588    -2.59052896    -1.20215797
O     8.0    -3.31069994    -3.49950790    -0.78738099
H     1.0     2.07112288     4.58209181     1.64339101
H     1.0     1.54826295     3.03568292     1.59785998
O     8.0     1.26270998     3.99347401     1.63267803
H     1.0     7.16201210    -3.30539989     0.97621202
H     1.0     6.58830500    -3.85997105     2.40104389
O     8.0     6.50271606    -3.92201996     1.40658903
H     1.0    -1.65464306    -3.60345101     2.08261204
H     1.0    -0.82261300    -2.20018601     2.15615797
O     8.0    -0.74178302    -3.19573903     2.10657501
H     1.0    -1.31537795    -1.76482105     0.05033900
H     1.0    -0.02327700    -2.72231698    -0.23341100
O     8.0    -0.78819299    -2.23653603    -0.65653998
H     1.0     0.96084601    -4.66847420    -4.27018213
H     1.0     2.17857289    -5.42131710    -5.05580521
O     8.0     1.25432205    -5.52786684    -4.68902683
H     1.0    -4.69211292    -3.05012298     3.20905709
H     1.0    -6.02249718    -3.86126804     2.72022390
O     8.0    -5.60665703    -2.95675302     2.81534696
H     1.0    -5.89794111     3.88325000     2.13546109
H     1.0    -4.27751780     4.07205009     2.20907593
O     8.0    -5.04194117     3.47517800     2.45304203
H     1.0    -1.56134903     4.68003321     1.32452404
H     1.0    -0.84312600     5.26142883    -0.02194200
O     8.0    -1.66643202     4.82452917     0.34055501
H     1.0    -4.92799377     3.78018594    -4.35236597
H     1.0    -3.40571499     3.44941497    -3.86237192
O     8.0    -3.96102190     3.82791591    -4.60297298
H     1.0    -2.66378593    -4.48340082     4.25939989
H     1.0    -2.52311993    -4.67913294     5.87455797
O     8.0    -2.23028493    -4.13293505     5.08968019
H     1.0     6.00091505     3.75506210     0.32063600
H     1.0     7.19165182     3.23531389     1.30999994
O     8.0     6.23392487     3.51953411     1.26421905
 $END
