!   File created by MacMolPlt 7.7.3
 $CONTRL SCFTYP=rhf RUNTYP=ENERGY MAXIT=10 $END
 $contrl ispher=1 $end
 $contrl icharg=0 mult=1 $end
 $CONTRL NPRINT=-5 $END
 $SYSTEM mwords=5000 memddi=5000 $END
 $BASIS
 GBASIS=df2svpd !  Basis set name in the external file
 BASNAM=def2dt ! External file name, same as extbas in gms-files.*
 EXTFIL=.T. ! Tell gamess to look for an external file
 $END
 $SCF DIRSCF=.TRUE. $END
 $DATA
19B
C1
N 7.0 -1.603448 0.056725 -0.001268
C 6.0 -0.907079 0.032289 -1.145988
H 1.0 -1.491558 0.055513 -2.056963
C 6.0 0.482558 -0.017454 -1.194673
H 1.0 0.989910 -0.034746 -2.148455
C 6.0 1.192931 -0.043166 0.000940
H 1.0 2.273267 -0.080931 0.001790
C 6.0 0.480683 -0.018145 1.195480
H 1.0 0.986482 -0.035969 2.149966
C 6.0 -0.908870 0.031605 1.144526
H 1.0 -1.494876 0.054279 2.054645
 $END
