 $CONTRL SCFTYP=rhf RUNTYP=ENERGY MAXIT=10 $END 
 $contrl ispher=1 $end
 $contrl icharg=0 mult=1 $end
 $CONTRL NPRINT=-5 $END
 $SYSTEM mwords=5000 memddi=5000 $END
 $BASIS GBASIS=CCD $END
 $SCF DIRSCF=.TRUE. $END
 $DATA
64 water molecules
C1
H     1.0     3.13075590     5.30299282     6.64566422
H     1.0     3.01368499     5.01825809     5.04190111
O     8.0     2.50516391     5.06833887     5.90156078
H     1.0     0.15114200     0.45461100    -9.57777405
H     1.0     1.77703404     0.30869699    -9.62272167
O     8.0     1.00897098     0.74398398    -9.15291119
H     1.0    -0.14618300    -4.16625690    -6.55235481
H     1.0    -0.09900000    -2.76974201    -7.39755106
O     8.0    -0.69882101    -3.43665504    -6.95532894
H     1.0     5.10057592    -0.51582402     0.72553402
H     1.0     6.14671278    -1.06466603    -0.40194401
O     8.0     6.01684284    -0.40675700     0.33995000
H     1.0   -10.06579399     3.50630808     3.02725911
H     1.0    -9.84835434     1.94901001     3.46814108
O     8.0    -9.46229267     2.71258307     2.95042610
H     1.0     5.54407787     6.38779116    -8.50641346
H     1.0     6.92661381     5.97584820    -7.74108219
O     8.0     6.00661993     6.34896088    -7.62060118
H     1.0    -3.23568106    -2.83371496     9.20226860
H     1.0    -1.89452899    -3.57125306     9.77164078
O     8.0    -2.38341904    -2.70113301     9.70841789
H     1.0     1.58350098    -6.93020487    -7.37256384
H     1.0     1.16999602    -6.52308512    -5.84609699
O     8.0     0.82011801    -6.71740818    -6.76257992
H     1.0     5.52157497    -7.38609791    -6.48255777
H     1.0     4.35120821    -6.24946308    -6.55423689
O     8.0     4.55532885    -7.22034883    -6.68006992
H     1.0    -1.56825101     1.33853495     9.27776146
H     1.0    -3.04960203     0.65548497     9.35441494
O     8.0    -2.55100989     1.52117205     9.30849266
H     1.0    -0.29805300    -1.61473298     5.88610077
H     1.0    -1.83755004    -2.01365399     6.25711203
O     8.0    -1.22535598    -1.26193500     6.01164389
H     1.0     7.45684290    -8.14773560    -2.41367507
H     1.0     6.40868711    -9.39993572    -2.42786193
O     8.0     7.37546778    -9.14447784    -2.41393590
H     1.0     6.96963406     5.88171291     1.38247395
H     1.0     8.30048370     4.93574095     1.35398495
O     8.0     7.32320976     4.97669983     1.14571798
H     1.0     6.24841118    -3.70636892     0.26706001
H     1.0     6.41895294    -2.45411491     1.30128098
O     8.0     6.90773678    -3.11695409     0.73395997
H     1.0     2.39092898    -2.82295609    -8.15328693
H     1.0     3.35878992    -1.64244795    -8.73335648
O     8.0     2.86974001    -2.48395109    -8.96318340
H     1.0    -0.75064898    11.64414215    -2.77719212
H     1.0     0.27875599    10.37657833    -2.75616407
O     8.0     0.21157600    11.37424469    -2.73985505
H     1.0     5.76144409     2.59113503    -7.21262121
H     1.0     6.10904694     1.56853604    -5.98775387
O     8.0     5.72333479     1.63945699    -6.90770721
H     1.0    -5.01954889     2.43475604     1.02109504
H     1.0    -3.69168091     1.91653204     0.22419800
O     8.0    -4.14174986     2.71193910     0.63025701
H     1.0    -4.49521399     2.56976509    -7.60930777
H     1.0    -3.92889500     3.70113993    -6.57678223
O     8.0    -3.95188594     2.72301698    -6.78382301
H     1.0    -2.11346698    10.48195267     1.06604397
H     1.0    -0.48285899    10.51381397     0.98276299
O     8.0    -1.30623996    11.07195759     1.08590102
H     1.0    -4.49168396    -3.27331090     4.86864424
H     1.0    -2.99271393    -3.02643490     4.26949787
O     8.0    -3.69616508    -3.71342492     4.45203209
H     1.0    -2.56987596    -1.14114404    -9.90900326
H     1.0    -2.62629604     0.49092501    -9.90742016
O     8.0    -2.02101588    -0.30516100    -9.90779305
H     1.0    -3.54332590    -5.34523296    -9.36302090
H     1.0    -2.80781889    -3.90020895    -9.16867542
O     8.0    -3.68236494    -4.35523701    -9.33671284
H     1.0    -4.91147900    -2.46707106    -6.24330997
H     1.0    -4.26407003    -3.74428010    -5.45817709
O     8.0    -4.07998180    -2.83207011    -5.82437611
H     1.0    -0.47272399     5.92670393    -5.85043478
H     1.0    -2.07697701     6.22687387    -5.90615320
O     8.0    -1.16711199     6.63997889    -5.94624186
H     1.0    -1.23162198     5.26401997     1.84102905
H     1.0    -0.32467601     3.91422105     1.99045205
O     8.0    -1.15909004     4.29758406     1.59433901
H     1.0     3.07389688    -9.96866322    -5.91594124
H     1.0     3.63891506    -8.82981014    -4.89095116
O     8.0     3.54707408    -9.81305981    -5.04875708
H     1.0    -6.18713284     8.90138435    -4.91527987
H     1.0    -4.93448877     7.86351299    -5.05860615
O     8.0    -5.79132080     8.04761028    -4.57687521
H     1.0    -1.94033694     1.39826703    -5.37740898
H     1.0    -3.39539409     0.72484100    -5.68747902
O     8.0    -2.86372995     1.25022697    -5.02308416
H     1.0     3.49009800     7.32106876    -2.41947198
H     1.0     4.55550289     6.08559513    -2.49264503
O     8.0     3.58915210     6.32610416    -2.40077496
H     1.0    -1.95312095     1.45774901    11.48626041
H     1.0    -1.80842805    -0.08974700    10.98510647
O     8.0    -2.37217903     0.54997802    11.50765228
H     1.0     1.26510406    -4.02897692     9.45465374
H     1.0     1.64159298    -5.61321306     9.33100605
O     8.0     1.99299204    -4.68111706     9.24250031
H     1.0     0.86724597    -4.36547422    -2.29118109
H     1.0     2.49063706    -4.53870583    -2.32897496
O     8.0     1.74015999    -3.87793303    -2.31218791
H     1.0     8.15080547     2.86412191     2.99724102
H     1.0     6.60207891     3.30156898     2.71988893
O     8.0     7.29196787     2.59519291     2.56113100
H     1.0     5.63998413    -4.57243776    -2.34941101
H     1.0     4.59568214    -5.47347689    -3.22371006
O     8.0     5.48221302    -5.47014713    -2.76092601
H     1.0    -3.53382993     3.33001709    -3.70179391
H     1.0    -3.73434401     1.88328397    -2.97131896
O     8.0    -3.97876811     2.85262799    -2.94400311
H     1.0    -8.24122334    -6.90337276    -2.97107005
H     1.0    -6.62173605    -6.88360119    -2.76200604
O     8.0    -7.45012188    -6.32351398    -2.77603292
H     1.0    -3.05875492     1.94243598     4.32693386
H     1.0    -4.09297323     0.70570201     4.58716488
O     8.0    -3.13356400     0.95293200     4.45103693
H     1.0     1.04881799    -1.75131297     9.27799416
H     1.0    -0.24649400    -0.76266903     9.38563347
O     8.0     0.75274003    -0.80285400     9.39148426
H     1.0     9.71770000     0.72876400     1.49920905
H     1.0     9.29509258     2.18437290     0.89139098
O     8.0     9.51679707     1.68159294     1.72696102
H     1.0     1.03233802    -7.70689392    -1.92477596
H     1.0     1.94863296    -7.34465981    -3.22709203
O     8.0     1.49552202    -8.08295822    -2.72736692
H     1.0     4.87139702     9.76007366     3.88100004
H     1.0     3.91493011     8.44416046     3.73823905
O     8.0     4.15016699     9.32990932     3.33795094
H     1.0     3.46253300    -0.84180403    -4.38464689
H     1.0     2.24954104     0.21074399    -4.08862877
O     8.0     2.53590488    -0.74506098    -4.02116823
H     1.0     2.50446701     2.14647388    -7.20012093
H     1.0     1.79668903     2.81785703    -8.50975132
O     8.0     2.57463598     2.27740502    -8.18908501
H     1.0     7.66742897    -7.71055079     0.72107601
H     1.0     7.52567387    -6.10881615     1.00601006
O     8.0     8.16888905    -6.85044479     0.81527799
H     1.0     1.63570595     2.28020692    -2.81179595
H     1.0     1.26446998     3.85767388    -3.01334000
O     8.0     1.95396996     3.21809602    -2.67326999
H     1.0     6.55250788     6.78211212    -3.56074309
H     1.0     7.48594189     5.44410801    -3.63340902
O     8.0     6.55640602     5.78448296    -3.49119306
H     1.0     4.47233391    -3.84878993     8.51495075
H     1.0     4.21870422    -5.37527084     7.99306583
O     8.0     4.80141211    -4.79211807     8.55919361
H     1.0    -1.70586205    -7.19808197     2.45511794
H     1.0    -1.46087396    -5.60603380     2.18641710
O     8.0    -1.14713597    -6.40534115     2.69905210
H     1.0    -2.68513203    -5.42545891     6.12830305
H     1.0    -1.27758205    -5.01624489     6.84815311
O     8.0    -2.22736597    -4.74202204     6.69705677
H     1.0    -2.09494901   -10.26262760     1.38149798
H     1.0    -2.65759301   -10.96286011     2.74529505
O     8.0    -2.91833091   -10.52068329     1.88703406
H     1.0    -0.42926899     2.70689988    -9.12571335
H     1.0    -0.42470700     1.77972400    -7.78140593
O     8.0    -0.96145099     2.06257105    -8.57640362
H     1.0    -1.24952102     5.14131689     9.55782318
H     1.0    -0.25078800     4.33980703    10.57120895
O     8.0    -0.31442201     4.81342697     9.69271469
H     1.0    -0.93492502    -3.22785997   -11.51763439
H     1.0    -0.65246302    -1.73227596   -10.92579079
O     8.0    -0.68424499    -2.28944492   -11.75565338
H     1.0     1.93116403    -0.70672703    -0.14878701
H     1.0     0.32810700    -0.84351802    -0.42867100
O     8.0     1.13898098    -1.31313896    -0.07930400
H     1.0    -3.24107409    -3.49402189     2.10309196
H     1.0    -4.21303797    -3.46666503     0.79108000
O     8.0    -3.60311389    -4.03474283     1.34370804
H     1.0     6.63292217    -1.53024900     4.40288782
H     1.0     6.29151487    -2.91863298     5.19197989
O     8.0     5.89837980    -2.13498211     4.71088409
H     1.0     2.17879796     6.18087101    -8.19291687
H     1.0     3.59529495     5.37557316    -8.30185509
O     8.0     2.67591310     5.46602201    -8.68483543
H     1.0     8.78602028    -1.85960996     7.95842886
H     1.0     7.55080223    -2.58780909     7.17689180
O     8.0     7.80255318    -1.83035696     7.77939081
H     1.0    -4.14283800    -1.28809094     0.78231901
H     1.0    -2.62355709    -0.72757000     0.99311501
O     8.0    -3.27570009    -1.43820798     1.25734794
H     1.0     2.00831890     1.83387804     7.29751396
H     1.0     0.86983103     0.84312600     7.92128611
O     8.0     1.63227701     1.45159304     8.14165115
H     1.0    -0.14998201     6.97772503     5.56754208
H     1.0    -1.72046995     6.54465914     5.68093300
O     8.0    -1.07488501     7.30399990     5.76302719
H     1.0    -1.69039094    -5.90740013     8.92975521
H     1.0    -1.84803796    -7.51495981     9.17003441
O     8.0    -2.33089900    -6.67537594     8.92091370
H     1.0   -10.29405403     1.85546994     0.88947302
H     1.0    -9.40829945     1.63161898    -0.46410200
O     8.0   -10.00824070     1.18800902     0.20177899
 $END
