!   File created by MacMolPlt 7.7.3
 $CONTRL SCFTYP=rhf RUNTYP=ENERGY MAXIT=1 $END
 $contrl ispher=1 $end
 $contrl icharg=0 mult=1 $end
 $CONTRL NPRINT=-5 $END
 $SYSTEM mwords=5000 memddi=5000 $END
 $BASIS
 GBASIS=df2tzvp !  Basis set name in the external file
 BASNAM=def2dt ! External file name, same as extbas in gms-files.*
 EXTFIL=.T. ! Tell gamess to look for an external file
 $END
 $SCF DIRSCF=.TRUE. $END
 $DATA
31
C1
N 7.0 -0.043203 -1.221211 -1.126963
H 1.0 -0.045552 -2.231824 -1.111104
C 6.0 -1.301143 -0.603006 -1.156899
O 8.0 -2.319550 -1.273685 -1.166754
C 6.0 -1.229148 0.846919 -1.173150
H 1.0 -2.145069 1.410331 -1.215700
C 6.0 -0.027524 1.456706 -1.127220
H 1.0 0.078037 2.531346 -1.129043
N 7.0 1.142199 0.749153 -1.069081
H 1.0 2.031391 1.215642 -1.005233
C 6.0 1.200856 -0.632963 -1.045150
O 8.0 2.244068 -1.252318 -0.966740
C 6.0 0.733678 -0.216076 2.237265
H 1.0 1.250795 -1.087064 1.860039
H 1.0 1.339289 0.570918 2.664579
C 6.0 -0.595099 -0.115486 2.188018
H 1.0 -1.207102 -0.902965 1.771117
H 1.0 -1.106924 0.755584 2.572018
 $END
