!   File created by MacMolPlt 7.7.3
 $CONTRL SCFTYP=rhf RUNTYP=ENERGY MAXIT=1 $END
 $contrl ispher=1 $end
 $contrl icharg=0 mult=1 $end
 $CONTRL NPRINT=-5 $END
 $SYSTEM mwords=5000 memddi=5000 $END
 $BASIS GBASIS=CCD $END
 $SCF DIRSCF=.TRUE. $END
 $DATA
39A
C1
C 6.0 0.865203 1.045480 0.317256
H 1.0 1.537134 1.857243 0.561368
C 6.0 1.337310 -0.265602 0.290153
H 1.0 2.375416 -0.471302 0.513976
C 6.0 0.471895 -1.311301 -0.026467
H 1.0 0.837845 -2.328844 -0.046679
C 6.0 -0.865276 -1.045736 -0.316857
H 1.0 -1.536802 -1.857325 -0.561509
C 6.0 -1.337408 0.265642 -0.290458
H 1.0 -2.375027 0.471538 -0.515203
C 6.0 -0.472249 1.311260 0.027078
H 1.0 -0.838042 2.328947 0.047342
 $END
