!   File created by MacMolPlt 7.7.3
 $CONTRL SCFTYP=rhf RUNTYP=ENERGY MAXIT=1 $END
 $contrl ispher=1 $end
 $contrl icharg=0 mult=1 $end
 $CONTRL NPRINT=-5 $END
 $SYSTEM mwords=5000 memddi=5000 $END
 $BASIS GBASIS=CCD $END
 $SCF DIRSCF=.TRUE. $END
 $DATA
09
C1
C 6.0 -0.471925 -0.471925 -1.859112
C 6.0 0.471925 0.471925 -1.859112
C 6.0 -0.471925 0.471925 1.859112
C 6.0 0.471925 -0.471925 1.859112
H 1.0 -0.870464 -0.870464 -2.783309
H 1.0 0.870464 0.870464 -2.783309
H 1.0 -0.872422 -0.872422 -0.936125
H 1.0 0.872422 0.872422 -0.936125
H 1.0 -0.872422 0.872422 0.936125
H 1.0 0.872422 -0.872422 0.936125
H 1.0 -0.870464 0.870464 2.783309
H 1.0 0.870464 -0.870464 2.783309
 $END
