!   File created by MacMolPlt 7.7.3
 $CONTRL SCFTYP=rhf RUNTYP=ENERGY MAXIT=1 $END
 $contrl ispher=1 $end
 $contrl icharg=0 mult=1 $end
 $CONTRL NPRINT=-5 $END
 $SYSTEM mwords=5000 memddi=5000 $END
 $BASIS
 GBASIS=df2tzvp !  Basis set name in the external file
 BASNAM=def2dt ! External file name, same as extbas in gms-files.*
 EXTFIL=.T. ! Tell gamess to look for an external file
 $END
 $SCF DIRSCF=.TRUE. $END
 $DATA
21
C1
C 6.0 2.400269 1.586538 0.000000
C 6.0 2.601378 0.919376 -1.208292
C 6.0 3.006151 -0.415221 -1.208365
C 6.0 3.209754 -1.082209 0.000000
C 6.0 3.006151 -0.415221 1.208365
C 6.0 2.601378 0.919376 1.208292
C 6.0 -0.627744 -2.127800 0.000000
C 6.0 -2.001508 -2.219928 0.000000
C 6.0 -2.504865 -0.885561 0.000000
C 6.0 -1.375698 -0.018889 0.000000
C 6.0 -1.501233 1.373290 0.000000
C 6.0 -2.784283 1.898168 0.000000
C 6.0 -3.917084 1.059002 0.000000
C 6.0 -3.791450 -0.320199 0.000000
H 1.0 2.090772 2.622659 0.000000
H 1.0 2.439545 1.435214 -2.144591
H 1.0 3.158669 -0.933619 -2.144839
H 1.0 3.525183 -2.116631 0.000000
H 1.0 3.158669 -0.933619 2.144839
H 1.0 2.439545 1.435214 2.144591
H 1.0 0.694893 -0.474364 0.000000
H 1.0 0.119370 -2.903796 0.000000
H 1.0 -2.570209 -3.134084 0.000000
H 1.0 -0.630506 2.015475 0.000000
H 1.0 -2.919390 2.971309 0.000000
H 1.0 -4.902233 1.505460 0.000000
H 1.0 -4.669652 -0.952770 0.000000
N 7.0 -0.255873 -0.807171 0.000000
 $END
