!   File created by MacMolPlt 7.7.3
 $CONTRL SCFTYP=rhf RUNTYP=ENERGY MAXIT=1 $END
 $contrl ispher=1 $end
 $contrl icharg=0 mult=1 $end
 $CONTRL NPRINT=-5 $END
 $SYSTEM mwords=5000 memddi=5000 $END
 $BASIS
 GBASIS=df2svpd !  Basis set name in the external file
 BASNAM=def2dt ! External file name, same as extbas in gms-files.*
 EXTFIL=.T. ! Tell gamess to look for an external file
 $END
 $SCF DIRSCF=.TRUE. $END
 $DATA
63B
C1
C 6.0 0.509494 -0.255997 0.108916
O 8.0 1.704987 -0.092046 0.185431
O 8.0 -0.070007 -1.467401 0.308354
H 1.0 0.664443 -2.068510 0.501392
C 6.0 -0.512390 0.787935 -0.211765
H 1.0 -0.034096 1.758881 -0.258588
H 1.0 -0.965190 0.554739 -1.174474
H 1.0 -1.297241 0.782399 0.540734
 $END
