!   File created by MacMolPlt 7.7.3
 $CONTRL SCFTYP=rhf RUNTYP=ENERGY MAXIT=10 $END
 $contrl ispher=1 $end
 $contrl icharg=0 mult=1 $end
 $CONTRL NPRINT=-5 $END
 $SYSTEM mwords=5000 memddi=5000 $END
 $BASIS GBASIS=CCT $END
 $SCF DIRSCF=.TRUE. $END
 $DATA
09B
C1
O 8.0 -0.350847 -0.783222 -0.684135
H 1.0 -0.068820 -0.413274 -1.523999
C 6.0 0.035067 0.128362 0.335301
H 1.0 -0.288116 -0.301271 1.278368
H 1.0 1.116123 0.267445 0.374341
H 1.0 -0.443407 1.101960 0.220125
 $END
