!   File created by MacMolPlt 7.7.3
 $CONTRL SCFTYP=rhf RUNTYP=ENERGY MAXIT=10 $END
 $contrl ispher=1 $end
 $contrl icharg=0 mult=1 $end
 $CONTRL NPRINT=-5 $END
 $SYSTEM mwords=5000 memddi=5000 $END
 $BASIS GBASIS=CCT $END
 $SCF DIRSCF=.TRUE. $END
 $DATA
19
C1
O 8.0 -2.867930 0.467977 0.001356
H 1.0 -1.896676 0.502813 -0.000716
C 6.0 -3.218210 -0.898047 0.001123
H 1.0 -4.303670 -0.961534 0.004894
H 1.0 -2.855162 -1.425867 -0.885499
H 1.0 -2.848919 -1.427728 0.884058
N 7.0 0.032058 0.396942 -0.001742
C 6.0 0.728427 0.372506 -1.146462
H 1.0 0.143948 0.395730 -2.057437
C 6.0 2.118064 0.322763 -1.195147
H 1.0 2.625416 0.305471 -2.148930
C 6.0 2.828437 0.297051 0.000466
H 1.0 3.908773 0.259286 0.001315
C 6.0 2.116190 0.322072 1.195006
H 1.0 2.621988 0.304248 2.149492
C 6.0 0.726636 0.371822 1.144052
H 1.0 0.140630 0.394496 2.054171
 $END
