!   File created by MacMolPlt 7.7.3
 $CONTRL SCFTYP=rhf RUNTYP=ENERGY MAXIT=10 $END
 $contrl ispher=1 $end
 $contrl icharg=0 mult=1 $end
 $CONTRL NPRINT=-5 $END
 $SYSTEM mwords=5000 memddi=5000 $END
 $BASIS GBASIS=CCD $END
 $SCF DIRSCF=.TRUE. $END
 $DATA
42B
C1
C 6.0 0.963729 -0.847790 0.026406
H 1.0 1.417582 -0.939847 -0.961577
H 1.0 1.508232 -1.511771 0.695604
C 6.0 1.018043 0.618162 0.459342
H 1.0 1.976333 1.091061 0.248618
H 1.0 0.829927 0.699799 1.532565
C 6.0 -0.149309 1.230976 -0.311429
H 1.0 0.124995 1.319758 -1.364901
H 1.0 -0.433723 2.222117 0.040205
C 6.0 -1.266253 0.193404 -0.140401
H 1.0 -1.991793 0.217018 -0.951773
H 1.0 -1.810339 0.398101 0.781848
C 6.0 -0.543217 -1.173144 -0.036744
H 1.0 -0.785882 -1.817300 -0.880104
H 1.0 -0.858323 -1.700546 0.862342
 $END
