!   File created by MacMolPlt 7.7.3
 $CONTRL SCFTYP=rhf RUNTYP=ENERGY MAXIT=10 $END
 $contrl ispher=1 $end
 $contrl icharg=0 mult=1 $end
 $CONTRL NPRINT=-5 $END
 $SYSTEM mwords=5000 memddi=5000 $END
 $BASIS GBASIS=N311 NGAUSS=6 NDFUNC=3 NFFUNC=1 NPFUNC=3 $END
 $SCF DIRSCF=.TRUE. $END
 $DATA
52
C1
C 6.0 0.913102 0.899774 -1.738765
H 1.0 1.608851 1.724612 -1.670736
C 6.0 1.380079 -0.388453 -1.997787
H 1.0 2.438546 -0.562528 -2.133791
C 6.0 0.483149 -1.452958 -2.074361
H 1.0 0.845983 -2.452708 -2.268790
C 6.0 -0.881305 -1.228923 -1.895922
H 1.0 -1.576738 -2.054944 -1.952662
C 6.0 -1.348566 0.059093 -1.636536
H 1.0 -2.405374 0.232697 -1.488218
C 6.0 -0.451423 1.124460 -1.555177
H 1.0 -0.811434 2.118450 -1.332022
C 6.0 -0.170834 0.559070 2.243303
O 8.0 -0.639023 1.608517 1.864042
O 8.0 0.232379 -0.418493 1.404017
H 1.0 0.063674 -0.092579 0.502612
C 6.0 0.039121 0.162083 3.674708
H 1.0 -0.270845 0.971420 4.324697
H 1.0 -0.536960 -0.734541 3.891660
H 1.0 1.087618 -0.074049 3.839727
 $END
