!   File created by MacMolPlt 7.7.3
 $CONTRL SCFTYP=rhf RUNTYP=ENERGY MAXIT=10 $END
 $contrl ispher=1 $end
 $contrl icharg=0 mult=1 $end
 $CONTRL NPRINT=-5 $END
 $SYSTEM mwords=5000 memddi=5000 $END
 $BASIS
 GBASIS=df2tzvp !  Basis set name in the external file
 BASNAM=def2dt ! External file name, same as extbas in gms-files.*
 EXTFIL=.T. ! Tell gamess to look for an external file
 $END
 $SCF DIRSCF=.TRUE. $END
 $DATA
F14f
C1
C 6.0 -2.224326 -0.253250 0.167015
C 6.0 -1.636530 0.452784 1.399658
C 6.0 -1.538809 -0.478383 2.626350
C 6.0 -0.764113 0.122907 3.825865
C 6.0 0.764113 -0.122907 3.825865
C 6.0 1.538809 0.478383 2.626350
C 6.0 1.636530 -0.452784 1.399658
C 6.0 2.224326 0.253250 0.167015
C 6.0 2.322273 -0.659404 -1.067480
C 6.0 2.945144 0.043470 -2.287595
C 6.0 3.056110 -0.879748 -3.516118
C 6.0 -2.322273 0.659404 -1.067480
C 6.0 -2.945144 -0.043470 -2.287595
C 6.0 -3.056110 0.879748 -3.516118
H 1.0 -3.225905 -0.646299 0.410816
H 1.0 -1.597233 -1.127536 -0.077692
H 1.0 -0.646806 0.852591 1.142000
H 1.0 -2.262417 1.322174 1.660795
H 1.0 -1.065114 -1.428113 2.328938
H 1.0 -2.563489 -0.732606 2.940407
H 1.0 -0.950896 1.209754 3.864321
H 1.0 -1.168361 -0.295184 4.760923
H 1.0 0.950896 -1.209754 3.864321
H 1.0 1.168361 0.295184 4.760923
H 1.0 1.065114 1.428113 2.328938
H 1.0 2.563489 0.732606 2.940407
H 1.0 0.646806 -0.852591 1.142000
H 1.0 2.262417 -1.322174 1.660795
H 1.0 1.597233 1.127536 -0.077692
H 1.0 3.225905 0.646299 0.410816
H 1.0 1.314975 -1.025620 -1.329847
H 1.0 2.924112 -1.549402 -0.816302
H 1.0 2.340543 0.929770 -2.540371
H 1.0 3.945510 0.415392 -2.011284
H 1.0 2.062447 -1.238611 -3.825898
H 1.0 3.513245 -0.361000 -4.371721
H 1.0 3.673631 -1.760722 -3.282781
H 1.0 -1.314975 1.025620 -1.329847
H 1.0 -2.924112 1.549402 -0.816302
H 1.0 -2.340543 -0.929770 -2.540371
H 1.0 -3.945510 -0.415392 -2.011284
H 1.0 -2.062447 1.238611 -3.825898
H 1.0 -3.513245 0.361000 -4.371721
H 1.0 -3.673631 1.760722 -3.282781
 $END
