!   File created by MacMolPlt 7.7.3
 $CONTRL SCFTYP=rhf RUNTYP=ENERGY MAXIT=10 $END
 $contrl ispher=1 $end
 $contrl icharg=0 mult=1 $end
 $CONTRL NPRINT=-5 $END
 $SYSTEM mwords=5000 memddi=5000 $END
 $BASIS
 GBASIS=df2svpd !  Basis set name in the external file
 BASNAM=def2dt ! External file name, same as extbas in gms-files.*
 EXTFIL=.T. ! Tell gamess to look for an external file
 $END
 $SCF DIRSCF=.TRUE. $END
 $DATA
47A
C1
C 6.0 0.740048 1.161290 -0.216954
H 1.0 1.314076 2.062411 -0.384522
C 6.0 1.385947 -0.071178 -0.130905
H 1.0 2.461374 -0.126435 -0.230375
C 6.0 0.645899 -1.232365 0.085703
H 1.0 1.147194 -2.187829 0.156535
C 6.0 -0.740126 -1.161466 0.214208
H 1.0 -1.313666 -2.063224 0.380517
C 6.0 -1.386175 0.070859 0.129407
H 1.0 -2.461566 0.126677 0.230316
C 6.0 -0.646038 1.232485 -0.085344
H 1.0 -1.146969 2.188776 -0.148586
 $END
