!   File created by MacMolPlt 7.7.3
 $CONTRL SCFTYP=rhf RUNTYP=ENERGY MAXIT=10 $END
 $contrl ispher=1 $end
 $contrl icharg=0 mult=1 $end
 $CONTRL NPRINT=-5 $END
 $SYSTEM mwords=5000 memddi=5000 $END
 $BASIS GBASIS=CCT $END
 $SCF DIRSCF=.TRUE. $END
 $DATA
29B
C1
N 7.0 -1.166361 -0.554131 -0.173321
H 1.0 -2.061250 -0.985995 -0.357924
C 6.0 -1.166106 0.843679 -0.080310
O 8.0 -2.205989 1.471878 -0.195160
C 6.0 0.153389 1.402760 0.147253
H 1.0 0.254705 2.469982 0.243122
C 6.0 1.223262 0.584068 0.218774
H 1.0 2.227141 0.952732 0.367200
N 7.0 1.105201 -0.773226 0.106219
H 1.0 1.918637 -1.365413 0.098051
C 6.0 -0.095246 -1.420458 -0.120163
O 8.0 -0.187383 -2.625876 -0.253742
 $END
