!   File created by MacMolPlt 7.7.3
 $CONTRL SCFTYP=rhf RUNTYP=ENERGY MAXIT=1 $END
 $contrl ispher=1 $end
 $contrl icharg=0 mult=1 $end
 $CONTRL NPRINT=-5 $END
 $SYSTEM mwords=5000 memddi=5000 $END
 $BASIS
 GBASIS=df2tzvp !  Basis set name in the external file
 BASNAM=def2dt ! External file name, same as extbas in gms-files.*
 EXTFIL=.T. ! Tell gamess to look for an external file
 $END
 $SCF DIRSCF=.TRUE. $END
 $DATA
63
C1
C 6.0 0.773848 1.212298 -1.431974
H 1.0 1.413562 2.084140 -1.418057
C 6.0 1.285148 -0.030875 -1.063292
H 1.0 2.317121 -0.122011 -0.754651
C 6.0 0.459965 -1.154211 -1.079302
H 1.0 0.855560 -2.119086 -0.793031
C 6.0 -0.875769 -1.034835 -1.460219
H 1.0 -1.515646 -1.906612 -1.469060
C 6.0 -1.386525 0.209225 -1.828352
H 1.0 -2.422172 0.302165 -2.125755
C 6.0 -0.560978 1.332719 -1.815257
H 1.0 -0.956561 2.297535 -2.102270
C 6.0 0.586050 -0.389803 2.276568
O 8.0 1.781543 -0.225852 2.353084
O 8.0 0.006548 -1.601208 2.476006
H 1.0 0.740999 -2.202316 2.669045
C 6.0 -0.435834 0.654129 1.955887
H 1.0 0.042460 1.625075 1.909064
H 1.0 -0.888634 0.420932 0.993179
H 1.0 -1.220685 0.648592 2.708386
 $END
