!   File created by MacMolPlt 7.7.3
 $CONTRL SCFTYP=rhf RUNTYP=ENERGY MAXIT=10 $END
 $contrl ispher=1 $end
 $contrl icharg=0 mult=1 $end
 $CONTRL NPRINT=-5 $END
 $SYSTEM mwords=5000 memddi=5000 $END
 $BASIS
 GBASIS=df2svpd !  Basis set name in the external file
 BASNAM=def2dt ! External file name, same as extbas in gms-files.*
 EXTFIL=.T. ! Tell gamess to look for an external file
 $END
 $SCF DIRSCF=.TRUE. $END
 $DATA
undecan1
C1
C 6.0 -2.530746 -0.396781 -0.666318
C 6.0 -1.350107 0.000877 0.240470
C 6.0 0.000000 0.000000 -0.587921
C 6.0 1.350107 -0.000877 0.240470
C 6.0 2.530746 0.396781 -0.666318
C 6.0 -1.379337 -1.002346 1.398119
C 6.0 -1.719329 1.382765 0.802977
C 6.0 0.005934 -1.231028 -1.509173
C 6.0 -0.005934 1.231028 -1.509173
C 6.0 1.719329 -1.382765 0.802977
C 6.0 1.379337 1.002346 1.398119
H 1.0 -2.500006 -1.450184 -0.942793
H 1.0 -3.461689 -0.230489 -0.120133
H 1.0 -2.580263 0.197202 -1.578966
H 1.0 2.580263 -0.197202 -1.578966
H 1.0 2.500006 1.450184 -0.942793
H 1.0 3.461689 0.230489 -0.120133
H 1.0 -1.136986 -2.012583 1.066794
H 1.0 -0.709054 -0.731378 2.211243
H 1.0 -2.391304 -1.032289 1.809813
H 1.0 -1.920062 2.099285 0.006281
H 1.0 -2.637993 1.286641 1.386970
H 1.0 -0.962345 1.803448 1.457172
H 1.0 -0.233810 -2.151760 -0.976280
H 1.0 -0.716122 -1.111434 -2.316300
H 1.0 0.981491 -1.363347 -1.975916
H 1.0 0.233810 2.151760 -0.976280
H 1.0 0.716122 1.111434 -2.316300
H 1.0 -0.981491 1.363347 -1.975916
H 1.0 1.920062 -2.099285 0.006281
H 1.0 2.637993 -1.286641 1.386970
H 1.0 0.962345 -1.803448 1.457172
H 1.0 1.136986 2.012583 1.066794
H 1.0 0.709054 0.731378 2.211243
H 1.0 2.391304 1.032289 1.809813
 $END
