!   File created by MacMolPlt 7.7.3
 $CONTRL SCFTYP=rhf RUNTYP=ENERGY MAXIT=1 $END
 $contrl ispher=1 $end
 $contrl icharg=0 mult=1 $end
 $CONTRL NPRINT=-5 $END
 $SYSTEM mwords=5000 memddi=5000 $END
 $BASIS
 GBASIS=df2svpd !  Basis set name in the external file
 BASNAM=def2dt ! External file name, same as extbas in gms-files.*
 EXTFIL=.T. ! Tell gamess to look for an external file
 $END
 $SCF DIRSCF=.TRUE. $END
 $DATA
35
C1
C 6.0 -2.530170 -0.400866 -2.291208
H 1.0 -2.559673 -0.966081 -3.222671
H 1.0 -2.553823 -1.117156 -1.469856
H 1.0 -3.436000 0.200853 -2.235743
C 6.0 -1.275944 0.460344 -2.222490
H 1.0 -1.277871 1.041927 -1.297429
H 1.0 -1.280126 1.185264 -3.039672
C 6.0 0.002418 -0.364007 -2.293522
H 1.0 0.008042 -1.094704 -1.478683
H 1.0 0.006462 -0.943814 -3.221335
C 6.0 1.268547 0.479105 -2.223145
H 1.0 1.262233 1.060959 -1.298268
H 1.0 1.261848 1.203766 -3.040549
C 6.0 2.535179 -0.363716 -2.291828
H 1.0 2.572653 -0.929008 -3.222966
H 1.0 3.432194 0.251124 -2.236937
H 1.0 2.569421 -1.079101 -1.470058
C 6.0 -0.000308 0.080680 2.268792
C 6.0 0.000764 -0.059451 3.788525
H 1.0 -0.886272 0.404625 4.221894
H 1.0 0.010015 -1.110231 4.081535
H 1.0 0.879424 0.420214 4.222168
C 6.0 -1.239763 -0.600972 1.694893
H 1.0 -1.263063 -0.512015 0.608064
H 1.0 -1.251849 -1.662248 1.947907
H 1.0 -2.150707 -0.148681 2.089979
C 6.0 1.252297 -0.576861 1.695322
H 1.0 1.273624 -0.488575 0.608351
H 1.0 1.285428 -1.637422 1.949414
H 1.0 2.154109 -0.106217 2.089743
C 6.0 -0.014556 1.560473 1.894171
H 1.0 0.863210 2.071060 2.293126
H 1.0 -0.015080 1.686928 0.810519
H 1.0 -0.902662 2.053806 2.291959
 $END
