!   File created by MacMolPlt 7.7.3
 $CONTRL SCFTYP=rhf RUNTYP=ENERGY MAXIT=10 $END
 $contrl ispher=1 $end
 $contrl icharg=0 mult=1 $end
 $CONTRL NPRINT=-5 $END
 $SYSTEM mwords=5000 memddi=5000 $END
 $BASIS GBASIS=CCD $END
 $SCF DIRSCF=.TRUE. $END
 $DATA
13
C1
C 6.0 -0.964726 0.010959 1.854743
H 1.0 0.068935 0.339410 1.779212
H 1.0 -0.997907 -0.991594 2.275730
H 1.0 -1.506212 0.667336 2.531456
C 6.0 -1.679441 -0.002866 0.522502
O 8.0 -2.864936 -0.301080 0.419788
N 7.0 -0.917063 0.323103 -0.548632
H 1.0 0.045778 0.590818 -0.418260
C 6.0 -1.500759 0.348106 -1.871110
H 1.0 -2.007026 -0.592344 -2.077069
H 1.0 -2.235382 1.146669 -1.967853
H 1.0 -0.710055 0.500028 -2.600101
O 8.0 2.021656 0.602475 -0.183254
H 1.0 2.742511 1.229774 -0.092840
C 6.0 2.540741 -0.702891 0.050627
H 1.0 1.708169 -1.391679 -0.054949
H 1.0 3.306879 -0.971884 -0.676253
H 1.0 2.948838 -0.804340 1.056262
 $END
