!   File created by MacMolPlt 7.7.3
 $CONTRL SCFTYP=rhf RUNTYP=ENERGY MAXIT=10 $END
 $contrl ispher=1 $end
 $contrl icharg=0 mult=1 $end
 $CONTRL NPRINT=-5 $END
 $SYSTEM mwords=5000 memddi=5000 $END
 $BASIS
 GBASIS=df2tzvp !  Basis set name in the external file
 BASNAM=def2dt ! External file name, same as extbas in gms-files.*
 EXTFIL=.T. ! Tell gamess to look for an external file
 $END
 $SCF DIRSCF=.TRUE. $END
 $DATA
52A
C1
C 6.0 0.896863 1.064893 0.073299
H 1.0 1.592612 1.889731 0.141328
C 6.0 1.363840 -0.223334 -0.185723
H 1.0 2.422307 -0.397409 -0.321727
C 6.0 0.466910 -1.287839 -0.262297
H 1.0 0.829744 -2.287589 -0.456727
C 6.0 -0.897544 -1.063804 -0.083858
H 1.0 -1.592978 -1.889825 -0.140598
C 6.0 -1.364805 0.224212 0.175528
H 1.0 -2.421614 0.397816 0.323846
C 6.0 -0.467663 1.289579 0.256887
H 1.0 -0.827673 2.283569 0.480042
 $END
