!   File created by MacMolPlt 7.7.3
 $CONTRL SCFTYP=rhf RUNTYP=ENERGY MAXIT=1 $END
 $contrl ispher=1 $end
 $contrl icharg=0 mult=1 $end
 $CONTRL NPRINT=-5 $END
 $SYSTEM mwords=5000 memddi=5000 $END
 $BASIS GBASIS=N311 NGAUSS=6 NDFUNC=3 NFFUNC=1 NPFUNC=3 $END
 $SCF DIRSCF=.TRUE. $END
 $DATA
45
C1
C 6.0 -0.606188 0.082466 -2.947845
H 1.0 -1.668035 0.082368 -2.947838
C 6.0 0.605851 0.082133 -2.947583
H 1.0 1.667680 0.081455 -2.947122
C 6.0 -2.530402 -0.320864 0.681665
H 1.0 -2.538769 -0.982818 -0.184746
H 1.0 -2.582320 -0.947133 1.572255
H 1.0 -3.432817 0.288040 0.648903
C 6.0 -1.269870 0.533737 0.692734
H 1.0 -1.286522 1.206736 1.553143
H 1.0 -1.244603 1.167953 -0.196062
C 6.0 0.000049 -0.304594 0.733189
H 1.0 0.000051 -0.922384 1.636251
H 1.0 0.000116 -0.992893 -0.116052
C 6.0 1.269947 0.533782 0.692821
H 1.0 1.286575 1.206749 1.553242
H 1.0 1.244802 1.167954 -0.195980
C 6.0 2.530470 -0.320855 0.681874
H 1.0 2.538849 -0.982838 -0.184505
H 1.0 3.432848 0.288077 0.649148
H 1.0 2.582287 -0.947070 1.572508
 $END
