!   File created by MacMolPlt 7.7.3
 $CONTRL SCFTYP=rhf RUNTYP=ENERGY MAXIT=10 $END
 $contrl ispher=1 $end
 $contrl icharg=0 mult=1 $end
 $CONTRL NPRINT=-5 $END
 $SYSTEM mwords=5000 memddi=5000 $END
 $BASIS GBASIS=CCD $END
 $SCF DIRSCF=.TRUE. $END
 $DATA
53B
C1
C 6.0 0.071612 0.406917 -0.456096
O 8.0 0.318101 1.450343 -1.043335
N 7.0 -0.232436 -0.748090 -1.107263
H 1.0 -0.207235 -0.755105 -2.113900
H 1.0 -0.388212 -1.603582 -0.611562
C 6.0 0.094456 0.312025 1.052322
H 1.0 1.126170 0.396237 1.387395
H 1.0 -0.327448 -0.614618 1.433347
H 1.0 -0.455008 1.155871 1.459092
 $END
