!   File created by MacMolPlt 7.7.3
 $CONTRL SCFTYP=rhf RUNTYP=ENERGY MAXIT=1 $END
 $contrl ispher=1 $end
 $contrl icharg=0 mult=1 $end
 $CONTRL NPRINT=-5 $END
 $SYSTEM mwords=5000 memddi=5000 $END
 $BASIS GBASIS=CCD $END
 $SCF DIRSCF=.TRUE. $END
 $DATA
13A
C1
C 6.0 0.307674 -0.158920 1.863043
H 1.0 1.341334 0.169531 1.787512
H 1.0 0.274492 -1.161473 2.284029
H 1.0 -0.233812 0.497457 2.539755
C 6.0 -0.407042 -0.172744 0.530802
O 8.0 -1.592536 -0.470959 0.428087
N 7.0 0.355337 0.153224 -0.540332
H 1.0 1.318178 0.420939 -0.409960
C 6.0 -0.228360 0.178227 -1.862811
H 1.0 -0.734627 -0.762223 -2.068770
H 1.0 -0.962982 0.976791 -1.959553
H 1.0 0.562344 0.330149 -2.591802
 $END
