!   File created by MacMolPlt 7.7.3
 $CONTRL SCFTYP=rhf RUNTYP=ENERGY MAXIT=10 $END
 $contrl ispher=1 $end
 $contrl icharg=-1 mult=1 $end
 $CONTRL NPRINT=-5 $END
 $SYSTEM mwords=5000 memddi=5000 $END
 $BASIS
 GBASIS=df2tzvp !  Basis set name in the external file
 BASNAM=def2dt ! External file name, same as extbas in gms-files.*
 EXTFIL=.T. ! Tell gamess to look for an external file
 $END
 $SCF DIRSCF=.TRUE. $END
 $DATA
3d
C1
H 1.0 -3.090261 4.221432 1.307980
O 8.0 -3.230317 3.267264 1.199240
C 6.0 -2.486333 2.596069 2.229137
H 1.0 -2.863991 2.869382 3.222947
H 1.0 -1.419077 2.849413 2.170687
C 6.0 -2.611486 1.104360 2.028781
H 1.0 -2.008313 0.604056 2.797286
O 8.0 -3.994575 0.678624 2.175939
C 6.0 -4.288814 -0.385748 1.293422
H 1.0 -4.679440 -1.246368 1.839582
N 7.0 -5.373702 0.060964 0.358131
C 6.0 -5.756287 1.374145 0.262909
H 1.0 -5.203655 2.053186 0.902129
C 6.0 -6.743358 1.786316 -0.573585
H 1.0 -7.023844 2.829984 -0.622169
C 6.0 -7.420355 0.838279 -1.419446
O 8.0 -8.329694 1.077623 -2.224476
N 7.0 -6.939187 -0.473971 -1.282483
H 1.0 -7.366655 -1.184105 -1.871668
C 6.0 -5.944939 -0.924817 -0.440879
O 8.0 -5.590159 -2.102930 -0.388886
C 6.0 -2.197430 0.579460 0.653883
H 1.0 -2.484468 1.271824 -0.141604
C 6.0 -2.988983 -0.730145 0.543663
H 1.0 -3.175839 -1.036145 -0.489196
O 8.0 -2.318921 -1.767620 1.265543
H 1.0 -1.367096 -1.551920 1.203264
O 8.0 -0.792875 0.329197 0.618805
P 15.0 0.178546 1.204696 -0.407633
O 8.0 0.741744 2.386912 0.316112
O 8.0 -0.536232 1.360187 -1.718772
O 8.0 1.392370 0.121919 -0.512200
C 6.0 1.138821 -1.146062 -1.147038
H 1.0 0.819878 -0.982006 -2.181183
H 1.0 0.347922 -1.685655 -0.612993
C 6.0 2.397909 -1.980462 -1.104440
H 1.0 2.169357 -2.963687 -1.537844
O 8.0 3.438546 -1.349859 -1.896079
C 6.0 4.710880 -1.572012 -1.319444
H 1.0 5.381968 -2.051094 -2.034401
N 7.0 5.320739 -0.248741 -0.981469
C 6.0 4.591037 0.911429 -0.957299
H 1.0 3.540323 0.790313 -1.191882
C 6.0 5.146544 2.113490 -0.657837
H 1.0 4.546852 3.014078 -0.652310
C 6.0 6.548168 2.204224 -0.340468
O 8.0 7.178866 3.229564 -0.051617
N 7.0 7.210195 0.966082 -0.368279
H 1.0 8.202440 0.969964 -0.144980
C 6.0 6.676148 -0.268380 -0.668567
O 8.0 7.337466 -1.307015 -0.668970
C 6.0 3.022424 -2.180643 0.275949
H 1.0 2.918713 -1.278588 0.885234
C 6.0 4.502412 -2.444119 -0.071999
H 1.0 5.191543 -2.177556 0.735493
O 8.0 4.664322 -3.810621 -0.452383
H 1.0 3.992600 -4.300994 0.066132
O 8.0 2.406126 -3.303373 0.910308
H 1.0 2.511427 -3.209798 1.871923
 $END
