!   File created by MacMolPlt 7.7.3
 $CONTRL SCFTYP=rhf RUNTYP=ENERGY MAXIT=1 $END
 $contrl ispher=1 $end
 $contrl icharg=0 mult=1 $end
 $CONTRL NPRINT=-5 $END
 $SYSTEM mwords=5000 memddi=5000 $END
 $BASIS GBASIS=CCT $END
 $SCF DIRSCF=.TRUE. $END
 $DATA
02B
C1
O 8.0 -0.425801 0.462763 0.899602
H 1.0 -0.057818 -0.109314 1.577131
C 6.0 0.039204 -0.008867 -0.362557
H 1.0 -0.391613 0.642227 -1.115671
H 1.0 1.125168 0.041926 -0.436869
H 1.0 -0.289139 -1.028736 -0.561637
 $END
