!   File created by MacMolPlt 7.7.3
 $CONTRL SCFTYP=rhf RUNTYP=ENERGY MAXIT=1 $END
 $contrl ispher=1 $end
 $contrl icharg=-1 mult=1 $end
 $CONTRL NPRINT=-5 $END
 $SYSTEM mwords=5000 memddi=5000 $END
 $BASIS GBASIS=CCD $END
 $SCF DIRSCF=.TRUE. $END
 $DATA
1g
C1
H 1.0 -1.371585 4.943585 -2.636495
O 8.0 -1.278811 4.470828 -1.794490
C 6.0 0.078968 4.615421 -1.350667
H 1.0 0.246020 5.619224 -0.937979
H 1.0 0.785070 4.451242 -2.174729
C 6.0 0.367986 3.578551 -0.290534
H 1.0 1.409990 3.700659 0.033815
O 8.0 -0.499112 3.768830 0.867869
C 6.0 -0.846801 2.517864 1.428584
H 1.0 -0.610377 2.497194 2.493981
N 7.0 -2.327122 2.324429 1.313983
C 6.0 -3.107794 3.101979 0.497968
H 1.0 -2.566238 3.847008 -0.074016
C 6.0 -4.453538 2.942032 0.412163
H 1.0 -5.044471 3.570476 -0.241132
C 6.0 -5.114117 1.933669 1.199537
O 8.0 -6.327157 1.689610 1.229535
N 7.0 -4.235903 1.181038 1.996065
H 1.0 -4.649600 0.451430 2.570649
C 6.0 -2.867683 1.307575 2.093769
O 8.0 -2.173349 0.583847 2.808587
C 6.0 0.128340 2.124874 -0.694816
H 1.0 -0.771193 2.050815 -1.314349
C 6.0 -0.086489 1.434470 0.653508
H 1.0 -0.663772 0.509968 0.577513
O 8.0 1.156242 1.204509 1.317102
H 1.0 1.790369 0.942112 0.622984
O 8.0 1.253980 1.612964 -1.416428
P 15.0 0.944676 0.600614 -2.679407
O 8.0 2.281915 0.286601 -3.275599
O 8.0 -0.185200 1.116384 -3.518847
O 8.0 0.420132 -0.664552 -1.770076
C 6.0 -0.278189 -1.758547 -2.391634
H 1.0 0.158207 -1.989583 -3.369759
H 1.0 -1.334425 -1.497876 -2.522846
C 6.0 -0.170250 -2.967657 -1.487778
H 1.0 -0.813666 -3.759636 -1.891833
O 8.0 1.201361 -3.457005 -1.469838
C 6.0 1.559758 -3.882730 -0.171562
H 1.0 1.991320 -4.884031 -0.206811
N 7.0 2.623131 -2.977905 0.368177
C 6.0 2.882697 -1.751678 -0.184395
H 1.0 2.253180 -1.488301 -1.025376
C 6.0 3.850663 -0.927113 0.290209
H 1.0 4.039250 0.029930 -0.179099
C 6.0 4.660879 -1.334890 1.409006
O 8.0 5.562348 -0.682341 1.948943
N 7.0 4.351725 -2.620598 1.884662
H 1.0 4.906615 -2.967087 2.663425
C 6.0 3.381738 -3.482861 1.420279
O 8.0 3.187914 -4.601254 1.896087
C 6.0 -0.524423 -2.739762 -0.016810
H 1.0 -0.183591 -1.751550 0.308773
C 6.0 0.292999 -3.836963 0.688996
H 1.0 0.513474 -3.609000 1.737411
O 8.0 -0.367110 -5.096007 0.567395
H 1.0 -1.324809 -4.898063 0.593969
O 8.0 -1.933164 -2.878658 0.163602
H 1.0 -2.171003 -2.504082 1.028760
 $END
