!   File created by MacMolPlt 7.7.3
 $CONTRL SCFTYP=rhf RUNTYP=ENERGY MAXIT=10 $END
 $contrl ispher=1 $end
 $contrl icharg=0 mult=1 $end
 $CONTRL NPRINT=-5 $END
 $SYSTEM mwords=5000 memddi=5000 $END
 $BASIS GBASIS=CCD $END
 $SCF DIRSCF=.TRUE. $END
 $DATA
29
C1
N 7.0 1.153283 -0.071358 -1.505864
C 6.0 0.554463 -1.258482 -1.682123
H 1.0 1.194006 -2.129557 -1.616282
C 6.0 -0.808786 -1.408683 -1.924409
H 1.0 -1.227888 -2.396903 -2.048958
C 6.0 -1.605340 -0.269974 -1.992042
H 1.0 -2.668485 -0.345988 -2.174330
C 6.0 -1.001094 0.970603 -1.815752
H 1.0 -1.576286 1.884467 -1.847219
C 6.0 0.370247 1.016075 -1.578226
H 1.0 0.867223 1.968018 -1.438027
N 7.0 -0.770640 -0.383983 1.461949
H 1.0 -1.665529 -0.815846 1.277345
C 6.0 -0.770385 1.013827 1.554960
O 8.0 -1.810268 1.642027 1.440109
C 6.0 0.549110 1.572908 1.782523
H 1.0 0.650426 2.640131 1.878391
C 6.0 1.618984 0.754216 1.854043
H 1.0 2.622863 1.122881 2.002469
N 7.0 1.500923 -0.603077 1.741488
H 1.0 2.314359 -1.195265 1.733320
C 6.0 0.300476 -1.250310 1.515106
O 8.0 0.208338 -2.455728 1.381527
 $END
