!   File created by MacMolPlt 7.7.3
 $CONTRL SCFTYP=rhf RUNTYP=ENERGY MAXIT=1 $END
 $contrl ispher=1 $end
 $contrl icharg=0 mult=1 $end
 $CONTRL NPRINT=-5 $END
 $SYSTEM mwords=5000 memddi=5000 $END
 $BASIS GBASIS=N311 NGAUSS=6 NDFUNC=3 NFFUNC=1 NPFUNC=3 $END
 $SCF DIRSCF=.TRUE. $END
 $DATA
24B
C1
C 6.0 0.830907 1.115917 0.082588
H 1.0 1.475752 1.982100 0.146339
C 6.0 1.376860 -0.165234 0.144108
H 1.0 2.445067 -0.293381 0.256852
C 6.0 0.545210 -1.280834 0.065458
H 1.0 0.968292 -2.275187 0.115111
C 6.0 -0.831191 -1.115199 -0.079259
H 1.0 -1.476294 -1.980610 -0.146892
C 6.0 -1.376751 0.165033 -0.143225
H 1.0 -2.443379 0.292863 -0.266404
C 6.0 -0.545474 1.280314 -0.061154
H 1.0 -0.968999 2.274219 -0.113523
 $END
