!   File created by MacMolPlt 7.7.3
 $CONTRL SCFTYP=rhf RUNTYP=ENERGY MAXIT=10 $END
 $contrl ispher=1 $end
 $contrl icharg=0 mult=1 $end
 $CONTRL NPRINT=-5 $END
 $SYSTEM mwords=5000 memddi=5000 $END
 $BASIS GBASIS=CCD $END
 $SCF DIRSCF=.TRUE. $END
 $DATA
07B
C1
C 6.0 -1.591236 1.002936 0.248968
H 1.0 -1.084842 1.964385 0.214098
H 1.0 -2.001780 0.856800 1.246845
H 1.0 -2.420884 0.993423 -0.452537
C 6.0 -0.675605 -0.152003 -0.066948
O 8.0 -1.099800 -1.271914 -0.352030
N 7.0 0.650531 0.109722 -0.007749
H 1.0 0.948544 1.020150 0.289938
C 6.0 1.632937 -0.930390 -0.230493
H 1.0 1.276380 -1.581327 -1.022670
H 1.0 2.573307 -0.476866 -0.529006
H 1.0 1.792448 -1.534917 0.661583
 $END
