!   File created by MacMolPlt 7.7.3
 $CONTRL SCFTYP=rhf RUNTYP=ENERGY MAXIT=1 $END
 $contrl ispher=1 $end
 $contrl icharg=0 mult=1 $end
 $CONTRL NPRINT=-5 $END
 $SYSTEM mwords=5000 memddi=5000 $END
 $BASIS
 GBASIS=df2tzvp !  Basis set name in the external file
 BASNAM=def2dt ! External file name, same as extbas in gms-files.*
 EXTFIL=.T. ! Tell gamess to look for an external file
 $END
 $SCF DIRSCF=.TRUE. $END
 $DATA
60B
C1
C 6.0 -0.434803 0.316190 -0.230665
O 8.0 -0.688982 1.272292 -0.929503
O 8.0 -1.382708 -0.458150 0.337022
H 1.0 -2.243707 -0.090851 0.069251
C 6.0 0.940832 -0.165260 0.119486
H 1.0 1.679218 0.472290 -0.351364
H 1.0 1.067042 -0.153405 1.199521
H 1.0 1.063109 -1.193105 -0.213748
 $END
