!   File created by MacMolPlt 7.7.3
 $CONTRL SCFTYP=rhf RUNTYP=ENERGY MAXIT=10 $END
 $contrl ispher=1 $end
 $contrl icharg=0 mult=1 $end
 $CONTRL NPRINT=-5 $END
 $SYSTEM mwords=5000 memddi=5000 $END
 $BASIS GBASIS=CCT $END
 $SCF DIRSCF=.TRUE. $END
 $DATA
37A
C1
C 6.0 0.852069 -0.918339 -0.265857
H 1.0 0.905710 -1.018339 -1.351608
H 1.0 1.543557 -1.640457 0.166127
C 6.0 1.169041 0.528665 0.146068
H 1.0 1.890297 0.993857 -0.523141
H 1.0 1.607724 0.543537 1.143490
C 6.0 -0.192405 1.269402 0.149383
H 1.0 -0.205923 2.104575 -0.548271
H 1.0 -0.396650 1.680708 1.137391
C 6.0 -1.246560 0.207524 -0.214285
H 1.0 -1.421406 0.208956 -1.291599
H 1.0 -2.204580 0.381753 0.273565
C 6.0 -0.594725 -1.116356 0.182713
H 1.0 -1.072285 -1.983915 -0.270601
H 1.0 -0.633864 -1.241571 1.266626
 $END
