!   File created by MacMolPlt 7.7.3
 $CONTRL SCFTYP=rhf RUNTYP=ENERGY MAXIT=1 $END
 $contrl ispher=1 $end
 $contrl icharg=0 mult=1 $end
 $CONTRL NPRINT=-5 $END
 $SYSTEM mwords=5000 memddi=5000 $END
 $BASIS GBASIS=CCT $END
 $SCF DIRSCF=.TRUE. $END
 $DATA
F14l
C1
C 6.0 -8.354973 -0.186112 0.000000
C 6.0 -7.052646 0.637524 0.000000
C 6.0 -5.792485 -0.247571 0.000000
C 6.0 -4.482466 0.560181 0.000000
C 6.0 -3.223806 -0.325921 0.000000
C 6.0 -1.913706 0.481940 0.000000
C 6.0 -0.655015 -0.403990 0.000000
C 6.0 0.655015 0.403990 0.000000
C 6.0 1.913706 -0.481940 0.000000
C 6.0 3.223806 0.325921 0.000000
C 6.0 4.482466 -0.560181 0.000000
C 6.0 5.792485 0.247571 0.000000
C 6.0 7.052646 -0.637524 0.000000
C 6.0 8.354973 0.186112 0.000000
H 1.0 -9.243713 0.462135 0.000000
H 1.0 -8.404751 -0.833544 -0.889154
H 1.0 -8.404751 -0.833544 0.889154
H 1.0 -7.029300 1.296353 0.883499
H 1.0 -7.029300 1.296353 -0.883499
H 1.0 -5.813097 -0.907802 0.883704
H 1.0 -5.813097 -0.907802 -0.883704
H 1.0 -4.462131 1.220176 0.883690
H 1.0 -4.462131 1.220176 -0.883690
H 1.0 -3.243842 -0.985941 0.883646
H 1.0 -3.243842 -0.985941 -0.883646
H 1.0 -1.893577 1.141966 0.883651
H 1.0 -1.893577 1.141966 -0.883651
H 1.0 -0.675014 -1.064021 0.883652
H 1.0 -0.675014 -1.064021 -0.883652
H 1.0 0.675014 1.064021 0.883652
H 1.0 0.675014 1.064021 -0.883652
H 1.0 1.893577 -1.141966 0.883651
H 1.0 1.893577 -1.141966 -0.883651
H 1.0 3.243842 0.985941 0.883646
H 1.0 3.243842 0.985941 -0.883646
H 1.0 4.462131 -1.220176 0.883690
H 1.0 4.462131 -1.220176 -0.883690
H 1.0 5.813097 0.907802 0.883704
H 1.0 5.813097 0.907802 -0.883704
H 1.0 7.029300 -1.296353 0.883499
H 1.0 7.029300 -1.296353 -0.883499
H 1.0 8.404751 0.833544 0.889154
H 1.0 9.243713 -0.462135 0.000000
H 1.0 8.404751 0.833544 -0.889154
 $END
