!   File created by MacMolPlt 7.7.3
 $CONTRL SCFTYP=rhf RUNTYP=ENERGY MAXIT=10 $END
 $contrl ispher=1 $end
 $contrl icharg=0 mult=1 $end
 $CONTRL NPRINT=-5 $END
 $SYSTEM mwords=5000 memddi=5000 $END
 $BASIS GBASIS=CCD $END
 $SCF DIRSCF=.TRUE. $END
 $DATA
64
C1
C 6.0 1.688067 0.287024 -1.128452
H 1.0 1.699926 1.243249 -1.646646
H 1.0 2.373672 -0.399543 -1.616150
H 1.0 2.028098 0.433372 -0.104582
C 6.0 0.320180 -0.348850 -1.084001
O 8.0 0.157605 -1.525605 -0.786724
N 7.0 -0.715150 0.486524 -1.376488
H 1.0 -0.510659 1.450568 -1.564378
C 6.0 -2.091660 0.049980 -1.303510
H 1.0 -2.086385 -1.035396 -1.297651
H 1.0 -2.582191 0.399832 -0.394959
H 1.0 -2.649391 0.404763 -2.166824
C 6.0 0.012596 0.302009 2.377653
H 1.0 0.007715 1.044182 3.163536
H 1.0 -0.635936 0.469777 1.528970
C 6.0 0.781107 -0.784953 2.447463
H 1.0 1.426412 -0.956779 3.297591
H 1.0 0.775995 -1.520154 1.655153
 $END
