!   File created by MacMolPlt 7.7.3
 $CONTRL SCFTYP=rhf RUNTYP=ENERGY MAXIT=10 $END
 $contrl ispher=1 $end
 $contrl icharg=0 mult=1 $end
 $CONTRL NPRINT=-5 $END
 $SYSTEM mwords=5000 memddi=5000 $END
 $BASIS GBASIS=CCT $END
 $SCF DIRSCF=.TRUE. $END
 $DATA
61B
C1
C 6.0 -0.481185 -0.327554 -0.038355
O 8.0 -0.903799 -1.442734 -0.235502
O 8.0 -1.294877 0.731412 0.194234
H 1.0 -2.195639 0.377031 0.153699
C 6.0 0.959082 0.082113 -0.021150
H 1.0 1.584905 -0.788068 -0.179305
H 1.0 1.135120 0.816386 -0.804274
H 1.0 1.196393 0.551414 0.930653
 $END
