!   File created by MacMolPlt 7.7.3
 $CONTRL SCFTYP=rhf RUNTYP=ENERGY MAXIT=10 $END
 $contrl ispher=1 $end
 $contrl icharg=0 mult=1 $end
 $CONTRL NPRINT=-5 $END
 $SYSTEM mwords=5000 memddi=5000 $END
 $BASIS GBASIS=CCD $END
 $SCF DIRSCF=.TRUE. $END
 $DATA
38
C1
C 6.0 0.953759 -0.891030 -1.936048
H 1.0 1.501445 -1.277542 -2.794578
H 1.0 1.418263 -1.313962 -1.046973
C 6.0 0.987828 0.659324 -1.932495
H 1.0 1.507473 1.023912 -2.818051
H 1.0 1.513137 1.060634 -1.067461
C 6.0 -0.482573 1.103134 -1.974119
H 1.0 -0.619390 2.065693 -2.464431
H 1.0 -0.877863 1.189887 -0.959929
C 6.0 -1.185228 -0.051981 -2.684653
H 1.0 -0.952003 -0.026015 -3.751803
H 1.0 -2.268786 -0.032749 -2.576724
C 6.0 -0.533781 -1.274074 -2.038689
H 1.0 -0.693512 -2.196205 -2.595006
H 1.0 -0.953970 -1.414596 -1.041251
C 6.0 -1.135106 -0.383103 1.977968
H 1.0 -1.468241 -0.146404 0.965383
H 1.0 -1.939895 -0.926201 2.470954
C 6.0 0.178500 -1.178648 1.930207
H 1.0 0.228445 -1.836391 1.064073
H 1.0 0.258788 -1.810005 2.814592
C 6.0 1.307815 -0.115942 1.930803
H 1.0 1.929080 -0.176621 1.038929
H 1.0 1.965225 -0.265825 2.786208
C 6.0 0.597642 1.245727 2.038670
H 1.0 0.417779 1.654219 1.042670
H 1.0 1.178026 1.980130 2.594643
C 6.0 -0.744410 0.911254 2.688481
H 1.0 -1.484079 1.703766 2.583600
H 1.0 -0.604370 0.719614 3.755030
 $END
