 $CONTRL SCFTYP=rhf RUNTYP=ENERGY MAXIT=1 $END
 $contrl ispher=1 $end
 $contrl icharg=0 mult=1 $end
 $CONTRL NPRINT=-5 $END
 $SYSTEM mwords=5000 memddi=5000 $END
 $BASIS
 GBASIS=df2tzvp !  Basis set name in the external file
 BASNAM=def2dt ! External file name, same as extbas in gms-files.*
 EXTFIL=.T. ! Tell gamess to look for an external file
 $END
 $SCF DIRSCF=.TRUE. $END
 $DATA
32 water molecules
C1
H     1.0     8.83372784    -1.10660100    -5.47351885
H     1.0     7.83503723    -1.85334003    -6.52795315
O     8.0     8.11212063    -0.96899199    -6.15209389
H     1.0    -1.39871097    -4.88288784    -8.16169453
H     1.0    -2.83033299    -5.24344397    -7.46363020
O     8.0    -1.85403097    -5.45925999    -7.48302221
H     1.0     7.23738098     0.58302498     5.22973680
H     1.0     6.47101212    -0.85163897     5.37552404
O     8.0     6.53352594     0.08062400     5.73202896
H     1.0    -4.32684422    -1.19459105     0.56311202
H     1.0    -5.35297394    -2.38101912     0.10893100
O     8.0    -4.48375320    -2.18226194     0.56177503
H     1.0    -1.85220003     0.36263099     6.01737118
H     1.0    -2.06015110     1.80256701     6.75910902
O     8.0    -2.43212199     1.17535198     6.07474422
H     1.0     4.94290495     7.77996206    -6.32142305
H     1.0     5.94591522     7.22229004    -5.15960979
O     8.0     5.86439800     7.44064713    -6.13212919
H     1.0    -5.24795008     1.86355698    -5.03608894
H     1.0    -5.76710701     2.75441694    -3.76972389
O     8.0    -6.03361416     2.07682109    -4.45525694
H     1.0    -7.64860916    -2.50413895     2.31649399
H     1.0    -7.75036097    -4.04269600     1.77860403
O     8.0    -7.16858721    -3.23057294     1.82456994
H     1.0    -6.39117908    -6.18985701     2.96920991
H     1.0    -5.52787924    -5.37090492     4.08763218
O     8.0    -6.09244680    -5.28306103     3.26686192
H     1.0    -4.06497622     8.29890537     3.42015290
H     1.0    -3.67426991     6.71347809     3.39554906
O     8.0    -3.30899191     7.64438295     3.40581393
H     1.0     5.70116615     8.56182194     5.76136684
H     1.0     5.84381294     7.47557402     4.55035305
O     8.0     6.20101309     8.33052063     4.92664003
H     1.0    -1.80099595     6.77067089    -0.83240199
H     1.0    -0.19905700     7.08753109    -0.81735897
O     8.0    -1.11189198     7.49537516    -0.83999801
H     1.0     1.33760405     0.36633301    -6.57086420
H     1.0     2.23759890     1.53862405    -7.26554203
O     8.0     1.95221996     1.13559103    -6.39592123
H     1.0     4.33284712     4.46591282     6.33921814
H     1.0     4.16382504     6.01607084     5.85416222
O     8.0     3.75305390     5.27909803     6.39105606
H     1.0    -8.56222630     2.17121792    -4.75454283
H     1.0    -8.06573391     0.92066801    -5.67999077
O     8.0    -8.25411320     1.21985996    -4.74451494
H     1.0    -0.40593600     4.47212982    -7.85896015
H     1.0     1.22283697     4.54093504    -7.76304197
O     8.0     0.43630999     3.93310308    -7.87273502
H     1.0    -3.49187803    -4.68431091    -9.92979336
H     1.0    -2.76793289    -3.25572109    -9.61062431
O     8.0    -2.61281705    -4.21413517    -9.85041618
H     1.0    -3.89875388    -4.09100914     2.67061806
H     1.0    -2.71646905    -2.98459911     2.88250208
O     8.0    -3.70582294    -3.12982011     2.86812711
H     1.0     6.98503399     4.19064283    -8.47813416
H     1.0     7.00484896     5.41079187    -7.39292479
O     8.0     6.48218393     4.98176098    -8.12972260
H     1.0     1.48933101     2.16392803    -1.02092803
H     1.0     3.04845190     1.68921995    -1.12403500
O     8.0     2.10032010     1.37435305    -1.07905602
H     1.0     6.49949121     9.93178368     1.22697902
H     1.0     6.22514200     8.51193905     0.46828899
O     8.0     6.30767012     9.50094509     0.34510601
H     1.0    -3.61315298     3.60243607    -5.62803602
H     1.0    -2.60272789     2.62357593    -4.79875422
O     8.0    -2.73441792     3.54925203    -5.15357494
H     1.0     4.17227888    -3.83911991     9.13898659
H     1.0     2.80094409    -3.46065211     8.33709145
O     8.0     3.70458698    -3.13067102     8.61032867
H     1.0    -7.77690077     4.89828920    -4.88650084
H     1.0    -8.54886436     5.50567293    -3.58189702
O     8.0    -8.42490196     5.59138107    -4.57053518
H     1.0     0.55608898    -4.36027384    -1.96692204
H     1.0    -0.44099900    -3.06767893    -2.00993896
O     8.0     0.21407400    -3.61141205    -2.53467894
H     1.0     2.65328598    -4.86435699     2.47288299
H     1.0     1.97284901    -3.93491197     1.31531000
O     8.0     2.83724809    -4.22557020     1.72573805
H     1.0     0.51408398    -2.10286307    -7.94824314
H     1.0    -0.79234999    -2.73368192    -7.19848824
O     8.0    -0.47560200    -2.02415705    -7.82806015
H     1.0     7.91840506     2.43779802     3.21104693
H     1.0     7.32141399     2.91090894     1.76653898
O     8.0     8.13243866     2.90215993     2.35158610
H     1.0     7.51432800    -0.94814402     9.30775738
H     1.0     6.05668497    -0.29261500     8.97250557
O     8.0     6.59937096    -1.13227797     8.94850159
H     1.0     5.89992189     4.73977423    -4.06087494
H     1.0     5.65420294     3.12532902    -4.05589819
O     8.0     6.34783316     3.84571004    -4.04900122
H     1.0     0.15470199     2.35291910     4.40054178
H     1.0     0.39139199     3.95998597     4.56831598
O     8.0    -0.29164499     3.22961903     4.58023119
H     1.0    -3.94269300    -3.39688206    -2.96255207
H     1.0    -3.34505510    -2.05059409    -2.25744605
O     8.0    -3.19353509    -2.73446012    -2.97123003
 $END

