!   File created by MacMolPlt 7.7.3
 $CONTRL SCFTYP=rhf RUNTYP=ENERGY MAXIT=10 $END
 $contrl ispher=1 $end
 $contrl icharg=0 mult=1 $end
 $CONTRL NPRINT=-5 $END
 $SYSTEM mwords=5000 memddi=5000 $END
 $BASIS GBASIS=CCT $END
 $SCF DIRSCF=.TRUE. $END
 $DATA
06
C1
O 8.0 -1.478619 -2.019177 -0.384248
N 7.0 -1.545253 0.230843 0.002289
N 7.0 1.351765 0.230631 -0.032892
N 7.0 1.307316 -2.041644 0.402874
C 6.0 -2.198948 1.397366 0.216897
C 6.0 -2.158381 -0.997089 -0.206883
C 6.0 -3.596602 -0.938535 -0.192700
C 6.0 -4.266738 0.236327 0.019155
C 6.0 2.034424 -0.913685 0.151169
C 6.0 3.442763 -0.934950 0.137561
C 6.0 4.137594 0.240239 -0.069534
C 6.0 3.428975 1.428162 -0.261918
C 6.0 2.047017 1.361993 -0.234479
C 6.0 -3.564258 1.444972 0.233134
H 1.0 -1.573917 2.265071 0.371561
H 1.0 -4.121121 -1.868186 -0.354868
H 1.0 -0.507524 0.227873 -0.009587
H 1.0 -5.348804 0.237403 0.024201
H 1.0 3.964925 -1.869476 0.290747
H 1.0 5.218947 0.233261 -0.083276
H 1.0 3.930096 2.369092 -0.429947
H 1.0 1.452991 2.256045 -0.383998
H 1.0 -4.073032 2.379417 0.404500
H 1.0 1.788475 -2.914618 0.277097
H 1.0 0.327910 -2.041335 0.113145
 $END
