!   File created by MacMolPlt 7.7.3
 $CONTRL SCFTYP=rhf RUNTYP=ENERGY MAXIT=1 $END
 $contrl ispher=1 $end
 $contrl icharg=0 mult=1 $end
 $CONTRL NPRINT=-5 $END
 $SYSTEM mwords=5000 memddi=5000 $END
 $BASIS
 GBASIS=df2tzvp !  Basis set name in the external file
 BASNAM=def2dt ! External file name, same as extbas in gms-files.*
 EXTFIL=.T. ! Tell gamess to look for an external file
 $END
 $SCF DIRSCF=.TRUE. $END
 $DATA
04
C1
O 8.0 -3.259504 0.443860 0.161591
H 1.0 -3.778946 1.242390 0.263168
H 1.0 -2.342581 0.760094 0.176031
C 6.0 -0.669780 -1.416825 -0.144794
H 1.0 -0.019817 -2.277937 -0.277709
H 1.0 -1.350756 -1.339353 -0.988659
H 1.0 -1.282797 -1.555621 0.742215
C 6.0 0.084952 -0.118812 -0.012200
O 8.0 -0.491763 0.956482 0.144389
N 7.0 1.435585 -0.216315 -0.076818
H 1.0 1.836537 -1.126849 -0.206333
C 6.0 2.303827 0.935655 0.032625
H 1.0 1.667333 1.803956 0.167410
H 1.0 2.969417 0.844200 0.888718
H 1.0 2.898293 1.065076 -0.869634
 $END
