!   File created by MacMolPlt 7.7.3
 $CONTRL SCFTYP=rhf RUNTYP=ENERGY MAXIT=10 $END
 $contrl ispher=1 $end
 $contrl icharg=0 mult=1 $end
 $CONTRL NPRINT=-5 $END
 $SYSTEM mwords=5000 memddi=5000 $END
 $BASIS GBASIS=CCT $END
 $SCF DIRSCF=.TRUE. $END
 $DATA
pxylene
C1
C 6.0 0.000000 1.421761 0.006875
C 6.0 0.000000 0.696642 -1.195452
C 6.0 0.000000 -0.696642 -1.195452
C 6.0 0.000000 -1.421761 0.006875
C 6.0 0.000000 -0.699210 1.204565
C 6.0 0.000000 0.699210 1.204565
C 6.0 0.000000 2.928395 -0.000876
C 6.0 0.000000 -2.928395 -0.000876
H 1.0 0.000000 1.236154 -2.145393
H 1.0 0.000000 -1.236154 -2.145393
H 1.0 0.000000 -1.240217 2.153347
H 1.0 0.000000 1.240217 2.153347
H 1.0 0.000000 3.329708 1.021698
H 1.0 -0.885590 3.323221 -0.522382
H 1.0 0.885590 3.323221 -0.522382
H 1.0 0.000000 -3.329708 1.021698
H 1.0 -0.885590 -3.323221 -0.522382
H 1.0 0.885590 -3.323221 -0.522382
 $END
