!   File created by MacMolPlt 7.7.3
 $CONTRL SCFTYP=rhf RUNTYP=ENERGY MAXIT=1 $END
 $contrl ispher=1 $end
 $contrl icharg=0 mult=1 $end
 $CONTRL NPRINT=-5 $END
 $SYSTEM mwords=5000 memddi=5000 $END
 $BASIS
 GBASIS=df2tzvp !  Basis set name in the external file
 BASNAM=def2dt ! External file name, same as extbas in gms-files.*
 EXTFIL=.T. ! Tell gamess to look for an external file
 $END
 $SCF DIRSCF=.TRUE. $END
 $DATA
17B
C1
N 7.0 0.590921 1.160297 0.000000
H 1.0 1.038165 2.066870 0.000000
C 6.0 1.446969 0.045678 0.000000
O 8.0 2.656421 0.197382 0.000000
C 6.0 0.732750 -1.216495 0.000000
H 1.0 1.299335 -2.131527 0.000000
C 6.0 -0.617419 -1.220312 0.000000
H 1.0 -1.194383 -2.133277 0.000000
N 7.0 -1.355411 -0.069431 0.000000
H 1.0 -2.381747 -0.090873 0.000000
C 6.0 -0.782640 1.175234 0.000000
O 8.0 -1.432961 2.216453 0.000000
 $END
