!   File created by MacMolPlt 7.7.3
 $CONTRL SCFTYP=rhf RUNTYP=ENERGY MAXIT=10 $END
 $contrl ispher=1 $end
 $contrl icharg=0 mult=1 $end
 $CONTRL NPRINT=-5 $END
 $SYSTEM mwords=5000 memddi=5000 $END
 $BASIS GBASIS=CCD $END
 $SCF DIRSCF=.TRUE. $END
 $DATA
46B
C1
C 6.0 2.504130 0.327563 0.344978
H 1.0 2.620969 1.081979 -0.433767
H 1.0 2.418020 0.852449 1.296634
H 1.0 3.416221 -0.266679 0.371786
C 6.0 1.275858 -0.535825 0.087426
H 1.0 1.181288 -1.281279 0.880477
H 1.0 1.392278 -1.089289 -0.846417
C 6.0 -0.006680 0.282789 0.022125
H 1.0 -0.118250 0.860524 0.945209
H 1.0 0.072554 1.015604 -0.787528
C 6.0 -1.251036 -0.567546 -0.194755
H 1.0 -1.341838 -1.282033 0.626662
H 1.0 -1.123229 -1.156484 -1.104969
C 6.0 -2.517875 0.272745 -0.284870
H 1.0 -2.450962 0.979796 -1.112639
H 1.0 -3.403217 -0.343272 -0.438703
H 1.0 -2.668231 0.848957 0.628350
 $END
