!   File created by MacMolPlt 7.7.3
 $CONTRL SCFTYP=rhf RUNTYP=ENERGY MAXIT=10 $END
 $contrl ispher=1 $end
 $contrl icharg=0 mult=1 $end
 $CONTRL NPRINT=-5 $END
 $SYSTEM mwords=5000 memddi=5000 $END
 $BASIS GBASIS=CCD $END
 $SCF DIRSCF=.TRUE. $END
 $DATA
54A
C1
C 6.0 0.151699 -0.680500 -1.207557
H 1.0 0.267743 -1.208225 -2.144145
C 6.0 -0.150506 0.680408 -1.207895
H 1.0 -0.271484 1.207582 -2.144054
C 6.0 -0.301159 1.361282 0.000000
H 1.0 -0.536983 2.416554 0.000000
C 6.0 -0.150506 0.680408 1.207895
H 1.0 -0.271484 1.207582 2.144054
C 6.0 0.151699 -0.680500 1.207557
H 1.0 0.267743 -1.208225 2.144145
C 6.0 0.303200 -1.360567 0.000000
H 1.0 0.540037 -2.415799 0.000000
 $END
