!   File created by MacMolPlt 7.7.3
 $CONTRL SCFTYP=rhf RUNTYP=ENERGY MAXIT=1 $END
 $contrl ispher=1 $end
 $contrl icharg=0 mult=1 $end
 $CONTRL NPRINT=-5 $END
 $SYSTEM mwords=5000 memddi=5000 $END
 $BASIS
 GBASIS=df2svpd !  Basis set name in the external file
 BASNAM=def2dt ! External file name, same as extbas in gms-files.*
 EXTFIL=.T. ! Tell gamess to look for an external file
 $END
 $SCF DIRSCF=.TRUE. $END
 $DATA
15a
C1
N 7.0 0.320888 -0.223368 -2.137658
N 7.0 -1.556126 0.021047 -0.919060
N 7.0 -1.377123 0.371507 2.098275
N 7.0 0.927350 0.215594 1.804192
N 7.0 1.982564 -0.107873 -0.349661
H 1.0 -1.197289 0.232144 3.078549
H 1.0 -2.250288 0.008176 1.750564
H 1.0 2.947620 0.076143 1.454140
H 1.0 0.902594 -0.422583 -2.935037
H 1.0 -1.617855 -0.247514 -3.033230
C 6.0 -0.448139 0.059856 -0.107309
C 6.0 0.736805 -0.093757 -0.835872
C 6.0 1.976822 0.061598 0.975101
C 6.0 -0.304551 0.206283 1.283576
C 6.0 -1.043271 -0.157255 -2.126568
 $END
