!   File created by MacMolPlt 7.7.3
 $CONTRL SCFTYP=rhf RUNTYP=ENERGY MAXIT=1 $END
 $contrl ispher=1 $end
 $contrl icharg=0 mult=1 $end
 $CONTRL NPRINT=-5 $END
 $SYSTEM mwords=5000 memddi=5000 $END
 $BASIS GBASIS=N311 NGAUSS=6 NDFUNC=3 NFFUNC=1 NPFUNC=3 $END
 $SCF DIRSCF=.TRUE. $END
 $DATA
37
C1
C 6.0 0.797769 -1.023698 -2.743792
H 1.0 0.851411 -1.123697 -3.829543
H 1.0 1.489257 -1.745816 -2.311809
C 6.0 1.114742 0.423306 -2.331867
H 1.0 1.835997 0.888499 -3.001077
H 1.0 1.553425 0.438178 -1.334446
C 6.0 -0.246704 1.164043 -2.328552
H 1.0 -0.260222 1.999217 -3.026206
H 1.0 -0.450949 1.575349 -1.340545
C 6.0 -1.300859 0.102165 -2.692220
H 1.0 -1.475706 0.103597 -3.769535
H 1.0 -2.258879 0.276395 -2.204371
C 6.0 -0.649025 -1.221715 -2.295223
H 1.0 -1.126584 -2.089273 -2.748536
H 1.0 -0.688163 -1.346930 -1.211309
C 6.0 0.047701 0.092561 2.184748
C 6.0 -0.048643 -0.059525 3.700389
H 1.0 0.943904 -0.074991 4.152746
H 1.0 -0.607568 0.768360 4.138824
H 1.0 -0.555808 -0.988191 3.965738
C 6.0 0.761755 1.399466 1.849123
H 1.0 0.843274 1.532965 0.769441
H 1.0 0.218282 2.254155 2.254625
H 1.0 1.769359 1.410117 2.267356
C 6.0 -1.357310 0.112386 1.587429
H 1.0 -1.320379 0.229576 0.503580
H 1.0 -1.939610 0.939809 1.995775
H 1.0 -1.887214 -0.815401 1.808758
C 6.0 0.835601 -1.080924 1.607410
H 1.0 0.340381 -2.027914 1.827653
H 1.0 0.930444 -0.993741 0.524275
H 1.0 1.840319 -1.118328 2.031159
 $END
