!   File created by MacMolPlt 7.7.3
 $CONTRL SCFTYP=rhf RUNTYP=ENERGY MAXIT=10 $END
 $contrl ispher=1 $end
 $contrl icharg=0 mult=1 $end
 $CONTRL NPRINT=-5 $END
 $SYSTEM mwords=5000 memddi=5000 $END
 $BASIS GBASIS=CCT $END
 $SCF DIRSCF=.TRUE. $END
 $DATA
06
C1
O 8.0 -1.725659 0.985176 -0.004488
H 1.0 -0.753115 1.011056 -0.009535
C 6.0 -2.095409 -0.374570 -0.009260
H 1.0 -3.181662 -0.423850 -0.005009
H 1.0 -1.742144 -0.905306 -0.898618
H 1.0 -1.734818 -0.913475 0.872205
N 7.0 1.182534 0.902925 -0.014213
H 1.0 1.553153 1.410702 0.778920
H 1.0 1.553277 1.367264 -0.833472
C 6.0 1.660286 -0.483108 0.023249
H 1.0 1.268401 -1.017134 -0.838943
H 1.0 2.746997 -0.589843 0.026283
H 1.0 1.268159 -0.969838 0.912881
 $END
