!   File created by MacMolPlt 7.7.3
 $CONTRL SCFTYP=rhf RUNTYP=ENERGY MAXIT=1 $END
 $contrl ispher=1 $end
 $contrl icharg=0 mult=1 $end
 $CONTRL NPRINT=-5 $END
 $SYSTEM mwords=5000 memddi=5000 $END
 $BASIS GBASIS=CCD $END
 $SCF DIRSCF=.TRUE. $END
 $DATA
07
C1
O 8.0 -2.345834 -0.595898 -1.098670
H 1.0 -1.425931 -0.765919 -0.840227
C 6.0 -3.159230 -1.120199 -0.071719
H 1.0 -4.194548 -0.917735 -0.334862
H 1.0 -3.044800 -2.200854 0.042273
H 1.0 -2.961688 -0.654522 0.898381
C 6.0 -0.163566 1.524197 0.366037
H 1.0 0.342827 2.485646 0.331166
H 1.0 -0.574111 1.378061 1.363913
H 1.0 -0.993214 1.514683 -0.335469
C 6.0 0.752064 0.369258 0.050121
O 8.0 0.327869 -0.750653 -0.234961
N 7.0 2.078201 0.630982 0.109320
H 1.0 2.376213 1.541410 0.407007
C 6.0 3.060607 -0.409129 -0.113424
H 1.0 2.704050 -1.060067 -0.905601
H 1.0 4.000976 0.044395 -0.411938
H 1.0 3.220117 -1.013656 0.778652
 $END
