!   File created by MacMolPlt 7.7.3
 $CONTRL SCFTYP=rhf RUNTYP=ENERGY MAXIT=10 $END
 $contrl ispher=1 $end
 $contrl icharg=0 mult=1 $end
 $CONTRL NPRINT=-5 $END
 $SYSTEM mwords=5000 memddi=5000 $END
 $BASIS GBASIS=CCD $END
 $SCF DIRSCF=.TRUE. $END
 $DATA
56B
C1
N 7.0 0.901737 0.147726 -0.099994
H 1.0 1.036355 0.191766 -1.103065
H 1.0 1.043229 1.092873 0.232478
C 6.0 -0.474363 -0.258658 0.177442
H 1.0 -0.632239 -0.287205 1.253997
H 1.0 -1.245665 0.381723 -0.262677
H 1.0 -0.629055 -1.268225 -0.198180
 $END
