!   File created by MacMolPlt 7.7.3
 $CONTRL SCFTYP=rhf RUNTYP=ENERGY MAXIT=1 $END
 $contrl ispher=1 $end
 $contrl icharg=0 mult=1 $end
 $CONTRL NPRINT=-5 $END
 $SYSTEM mwords=5000 memddi=5000 $END
 $BASIS GBASIS=N311 NGAUSS=6 NDFUNC=3 NFFUNC=1 NPFUNC=3 $END
 $SCF DIRSCF=.TRUE. $END
 $DATA
35A
C1
C 6.0 -2.530487 -0.319978 -0.023187
H 1.0 -2.559990 -0.885192 -0.954649
H 1.0 -2.554140 -1.036267 0.798165
H 1.0 -3.436318 0.281742 0.032278
C 6.0 -1.276261 0.541233 0.045532
H 1.0 -1.278188 1.122816 0.970592
H 1.0 -1.280443 1.266153 -0.771651
C 6.0 0.002101 -0.283118 -0.025501
H 1.0 0.007725 -1.013815 0.789338
H 1.0 0.006145 -0.862925 -0.953314
C 6.0 1.268230 0.559994 0.044876
H 1.0 1.261916 1.141848 0.969753
H 1.0 1.261531 1.284655 -0.772528
C 6.0 2.534862 -0.282827 -0.023807
H 1.0 2.572336 -0.848119 -0.954945
H 1.0 3.431877 0.332013 0.031085
H 1.0 2.569104 -0.998212 0.797963
 $END
