!   File created by MacMolPlt 7.7.3
 $CONTRL SCFTYP=rhf RUNTYP=ENERGY MAXIT=10 $END
 $contrl ispher=1 $end
 $contrl icharg=-1 mult=1 $end
 $CONTRL NPRINT=-5 $END
 $SYSTEM mwords=5000 memddi=5000 $END
 $BASIS
 GBASIS=df2svpd !  Basis set name in the external file
 BASNAM=def2dt ! External file name, same as extbas in gms-files.*
 EXTFIL=.T. ! Tell gamess to look for an external file
 $END
 $SCF DIRSCF=.TRUE. $END
 $DATA
1f
C1
H 1.0 6.041635 0.790248 2.280265
O 8.0 5.153167 0.514215 2.004625
C 6.0 4.858020 -0.736678 2.648681
H 1.0 5.201971 -0.726189 3.689493
H 1.0 5.348075 -1.569133 2.125514
C 6.0 3.366981 -0.979599 2.615930
H 1.0 3.174397 -1.982185 3.019986
O 8.0 2.672751 -0.008894 3.454304
C 6.0 1.432875 0.348786 2.875456
H 1.0 0.619650 0.212850 3.590142
N 7.0 1.462364 1.805578 2.535657
C 6.0 2.638576 2.489746 2.372178
H 1.0 3.535694 1.895580 2.516911
C 6.0 2.674896 3.808460 2.050546
H 1.0 3.618803 4.323635 1.930645
C 6.0 1.450597 4.542309 1.867224
O 8.0 1.338555 5.740636 1.577212
N 7.0 0.297315 3.759868 2.043474
H 1.0 -0.597711 4.229919 1.934777
C 6.0 0.226550 2.420606 2.366908
O 8.0 -0.837046 1.813996 2.487405
C 6.0 2.685869 -0.853552 1.254887
H 1.0 3.127922 -0.027909 0.685920
C 6.0 1.231624 -0.503673 1.615378
H 1.0 0.730527 0.064061 0.828101
O 8.0 0.475752 -1.658611 1.965299
H 1.0 0.409952 -2.180040 1.142904
O 8.0 2.856997 -2.073901 0.527895
P 15.0 2.665713 -2.030808 -1.100477
O 8.0 2.931028 -3.422567 -1.588618
O 8.0 3.375756 -0.855983 -1.708272
O 8.0 1.049065 -1.723987 -1.045976
C 6.0 0.332271 -1.392472 -2.245973
H 1.0 0.881516 -1.715169 -3.138047
H 1.0 0.199831 -0.304511 -2.287500
C 6.0 -1.005838 -2.095477 -2.230470
H 1.0 -0.854182 -3.181144 -2.195261
O 8.0 -1.768541 -1.705209 -1.056711
C 6.0 -3.143181 -1.590868 -1.368652
H 1.0 -3.740332 -2.217414 -0.702538
N 7.0 -3.565983 -0.170263 -1.134285
C 6.0 -2.674237 0.807246 -0.777489
H 1.0 -1.653854 0.464166 -0.671966
C 6.0 -3.044505 2.094125 -0.561912
H 1.0 -2.314501 2.838490 -0.274861
C 6.0 -4.425308 2.478925 -0.698884
O 8.0 -4.899161 3.610022 -0.533866
N 7.0 -5.271583 1.412859 -1.043489
H 1.0 -6.261269 1.625418 -1.142162
C 6.0 -4.925126 0.097803 -1.267832
O 8.0 -5.744417 -0.774476 -1.555685
C 6.0 -1.905929 -1.740497 -3.412176
H 1.0 -1.796855 -0.682924 -3.679012
C 6.0 -3.311647 -2.000567 -2.839554
H 1.0 -4.094831 -1.428313 -3.344048
O 8.0 -3.594312 -3.399222 -2.874171
H 1.0 -3.136751 -3.738040 -3.670317
O 8.0 -1.589731 -2.576339 -4.524235
H 1.0 -1.909863 -2.142935 -5.333277
 $END
