!   File created by MacMolPlt 7.7.3
 $CONTRL SCFTYP=rhf RUNTYP=ENERGY MAXIT=1 $END
 $contrl ispher=1 $end
 $contrl icharg=0 mult=1 $end
 $CONTRL NPRINT=-5 $END
 $SYSTEM mwords=5000 memddi=5000 $END
 $BASIS GBASIS=CCT $END
 $SCF DIRSCF=.TRUE. $END
 $DATA
08
C1
O 8.0 -0.922075 0.661035 -0.004512
H 1.0 0.042193 0.628563 -0.004158
C 6.0 -1.383504 -0.674417 0.003761
H 1.0 -2.469791 -0.643030 0.002898
H 1.0 -1.061479 -1.233901 -0.877768
H 1.0 -1.062541 -1.222596 0.892754
O 8.0 1.993370 0.564530 -0.002064
H 1.0 2.432574 0.952682 -0.761936
H 1.0 2.431254 0.967134 0.751026
 $END
