!   File created by MacMolPlt 7.7.3
 $CONTRL SCFTYP=rhf RUNTYP=ENERGY MAXIT=1 $END
 $contrl ispher=1 $end
 $contrl icharg=0 mult=1 $end
 $CONTRL NPRINT=-5 $END
 $SYSTEM mwords=5000 memddi=5000 $END
 $BASIS GBASIS=CCT $END
 $SCF DIRSCF=.TRUE. $END
 $DATA
40B
C1
C 6.0 0.000002 -0.000004 0.001397
C 6.0 1.446251 0.178783 -0.453565
H 1.0 1.862108 1.112061 -0.070142
H 1.0 2.069650 -0.641832 -0.094711
H 1.0 1.506860 0.198175 -1.542499
C 6.0 -0.054389 -0.031375 1.526262
H 1.0 -1.080179 -0.158796 1.875350
H 1.0 0.541017 -0.857062 1.918816
H 1.0 0.333905 0.896509 1.949167
C 6.0 -0.549378 -1.309496 -0.558899
H 1.0 -1.584251 -1.459771 -0.246228
H 1.0 0.037079 -2.158470 -0.203088
H 1.0 -0.520598 -1.309949 -1.649214
C 6.0 -0.841370 1.164568 -0.514809
H 1.0 -0.819830 1.200598 -1.604807
H 1.0 -1.881160 1.060798 -0.200326
H 1.0 -0.465718 2.115262 -0.132702
 $END
