!   File created by MacMolPlt 7.7.3
 $CONTRL SCFTYP=rhf RUNTYP=ENERGY MAXIT=10 $END
 $contrl ispher=1 $end
 $contrl icharg=0 mult=1 $end
 $CONTRL NPRINT=-5 $END
 $SYSTEM mwords=5000 memddi=5000 $END
 $BASIS
 GBASIS=df2svpd !  Basis set name in the external file
 BASNAM=def2dt ! External file name, same as extbas in gms-files.*
 EXTFIL=.T. ! Tell gamess to look for an external file
 $END
 $SCF DIRSCF=.TRUE. $END
 $DATA
38B
C1
C 6.0 -1.180786 -0.474808 -0.134180
H 1.0 -1.513921 -0.238109 -1.146764
H 1.0 -1.985575 -1.017906 0.358807
C 6.0 0.132820 -1.270352 -0.181941
H 1.0 0.182765 -1.928095 -1.048075
H 1.0 0.213108 -1.901710 0.702444
C 6.0 1.262135 -0.207647 -0.181345
H 1.0 1.883400 -0.268326 -1.073218
H 1.0 1.919545 -0.357530 0.674060
C 6.0 0.551962 1.154022 -0.073478
H 1.0 0.372099 1.562514 -1.069477
H 1.0 1.132346 1.888426 0.482495
C 6.0 -0.790090 0.819550 0.576334
H 1.0 -1.529759 1.612061 0.471453
H 1.0 -0.650050 0.627910 1.642883
 $END
