!   File created by MacMolPlt 7.7.3
 $CONTRL SCFTYP=rhf RUNTYP=ENERGY MAXIT=10 $END
 $contrl ispher=1 $end
 $contrl icharg=0 mult=1 $end
 $CONTRL NPRINT=-5 $END
 $SYSTEM mwords=5000 memddi=5000 $END
 $BASIS GBASIS=N311 NGAUSS=6 NDFUNC=3 NFFUNC=1 NPFUNC=3 $END
 $SCF DIRSCF=.TRUE. $END
 $DATA
19a
C1
C 6.0 -1.207742 -0.697290 0.000000
C 6.0 -1.207742 0.697290 0.000000
C 6.0 0.000000 1.394581 0.000000
C 6.0 1.207742 0.697290 0.000000
C 6.0 1.207742 -0.697290 0.000000
C 6.0 0.000000 -1.394581 0.000000
H 1.0 -2.144071 1.237880 0.000000
H 1.0 0.000000 2.475760 0.000000
H 1.0 2.144071 1.237880 0.000000
H 1.0 2.144071 -1.237880 0.000000
H 1.0 0.000000 -2.475760 0.000000
H 1.0 -2.144071 -1.237880 0.000000
 $END
