!   File created by MacMolPlt 7.7.3
 $CONTRL SCFTYP=rhf RUNTYP=ENERGY MAXIT=10 $END
 $contrl ispher=1 $end
 $contrl icharg=0 mult=1 $end
 $CONTRL NPRINT=-5 $END
 $SYSTEM mwords=5000 memddi=5000 $END
 $BASIS GBASIS=N311 NGAUSS=6 NDFUNC=3 NFFUNC=1 NPFUNC=3 $END
 $SCF DIRSCF=.TRUE. $END
 $DATA
05
C1
O 8.0 -1.466332 1.012170 0.000000
O 8.0 -0.597223 5.486409 0.000000
O 8.0 1.466332 -1.012170 0.000000
O 8.0 0.597223 -5.486409 0.000000
C 6.0 1.276904 4.006178 0.000000
C 6.0 -0.128601 4.362156 0.000000
C 6.0 -0.628147 1.914268 0.000000
C 6.0 0.628147 -1.914268 0.000000
C 6.0 -1.636730 -2.705277 0.000000
C 6.0 -1.276904 -4.006178 0.000000
C 6.0 0.128601 -4.362156 0.000000
C 6.0 1.636730 2.705277 0.000000
N 7.0 0.720510 1.688269 0.000000
N 7.0 -0.977723 3.239644 0.000000
N 7.0 -0.720510 -1.688269 0.000000
N 7.0 0.977723 -3.239644 0.000000
H 1.0 1.023252 0.706182 0.000000
H 1.0 -1.970028 3.432386 0.000000
H 1.0 2.010351 4.793866 0.000000
H 1.0 2.669063 2.388342 0.000000
H 1.0 -2.010351 -4.793866 0.000000
H 1.0 -1.023252 -0.706182 0.000000
H 1.0 1.970028 -3.432386 0.000000
H 1.0 -2.669063 -2.388342 0.000000
 $END
