!   File created by MacMolPlt 7.7.3
 $CONTRL SCFTYP=rhf RUNTYP=ENERGY MAXIT=1 $END
 $contrl ispher=1 $end
 $contrl icharg=0 mult=1 $end
 $CONTRL NPRINT=-5 $END
 $SYSTEM mwords=5000 memddi=5000 $END
 $BASIS GBASIS=CCD $END
 $SCF DIRSCF=.TRUE. $END
 $DATA
62
C1
C 6.0 -2.495848 -0.142610 -1.369069
H 1.0 -2.518461 -0.695871 -2.308147
H 1.0 -2.567816 -0.871391 -0.560813
H 1.0 -3.384107 0.486120 -1.329566
C 6.0 -1.217632 0.677889 -1.253465
H 1.0 -1.225322 1.263757 -0.332186
H 1.0 -1.170449 1.396069 -2.075303
C 6.0 0.035099 -0.187765 -1.280087
H 1.0 0.005753 -0.892864 -0.442652
H 1.0 0.038119 -0.796348 -2.190001
C 6.0 1.323524 0.620561 -1.206495
H 1.0 1.305212 1.234057 -0.303934
H 1.0 1.358226 1.311872 -2.051633
C 6.0 2.564503 -0.262649 -1.219306
H 1.0 2.612647 -0.854768 -2.133424
H 1.0 3.479663 0.324585 -1.154618
H 1.0 2.551225 -0.958869 -0.379909
C 6.0 0.134090 0.381737 2.277981
O 8.0 0.161003 1.566811 1.986140
N 7.0 1.266671 -0.370140 2.380801
H 1.0 2.137611 0.052440 2.112139
H 1.0 1.227733 -1.362027 2.512224
C 6.0 -1.156131 -0.357200 2.542435
H 1.0 -1.008881 -1.317922 3.029559
H 1.0 -1.662358 -0.515509 1.591622
H 1.0 -1.794075 0.270036 3.157707
 $END
