!   File created by MacMolPlt 7.7.3
 $CONTRL SCFTYP=rhf RUNTYP=ENERGY MAXIT=1 $END
 $contrl ispher=1 $end
 $contrl icharg=0 mult=1 $end
 $CONTRL NPRINT=-5 $END
 $SYSTEM mwords=5000 memddi=5000 $END
 $BASIS GBASIS=N311 NGAUSS=6 NDFUNC=3 NFFUNC=1 NPFUNC=3 $END
 $SCF DIRSCF=.TRUE. $END
 $DATA
63A
C1
C 6.0 0.824885 1.123094 0.013127
H 1.0 1.464599 1.994936 0.027045
C 6.0 1.336185 -0.120079 0.381809
H 1.0 2.368158 -0.211215 0.690451
C 6.0 0.511003 -1.243416 0.365800
H 1.0 0.906597 -2.208290 0.652071
C 6.0 -0.824731 -1.124039 -0.015118
H 1.0 -1.464609 -1.995817 -0.023958
C 6.0 -1.335488 0.120021 -0.383250
H 1.0 -2.371135 0.212961 -0.680653
C 6.0 -0.509941 1.243515 -0.370156
H 1.0 -0.905523 2.208330 -0.657169
 $END
