!   File created by MacMolPlt 7.7.3
 $CONTRL SCFTYP=rhf RUNTYP=ENERGY MAXIT=1 $END
 $contrl ispher=1 $end
 $contrl icharg=0 mult=1 $end
 $CONTRL NPRINT=-5 $END
 $SYSTEM mwords=5000 memddi=5000 $END
 $BASIS
 GBASIS=df2tzvp !  Basis set name in the external file
 BASNAM=def2dt ! External file name, same as extbas in gms-files.*
 EXTFIL=.T. ! Tell gamess to look for an external file
 $END
 $SCF DIRSCF=.TRUE. $END
 $DATA
33A
C1
N 7.0 1.609625 -0.000204 0.096992
C 6.0 0.907593 -1.140210 0.057608
H 1.0 1.486962 -2.054932 0.091412
C 6.0 -0.481480 -1.193084 -0.027807
H 1.0 -0.985845 -2.148532 -0.059780
C 6.0 -1.193371 0.000163 -0.075288
H 1.0 -2.272454 0.000288 -0.143641
C 6.0 -0.481159 1.193205 -0.027949
H 1.0 -0.985269 2.148778 -0.060000
C 6.0 0.907894 1.139986 0.057422
H 1.0 1.487503 2.054541 0.091031
 $END
