!   File created by MacMolPlt 7.7.3
 $CONTRL SCFTYP=rhf RUNTYP=ENERGY MAXIT=10 $END
 $contrl ispher=1 $end
 $contrl icharg=0 mult=1 $end
 $CONTRL NPRINT=-5 $END
 $SYSTEM mwords=5000 memddi=5000 $END
 $BASIS
 GBASIS=df2svpd !  Basis set name in the external file
 BASNAM=def2dt ! External file name, same as extbas in gms-files.*
 EXTFIL=.T. ! Tell gamess to look for an external file
 $END
 $SCF DIRSCF=.TRUE. $END
 $DATA
65A
C1
N 7.0 0.282580 -0.001550 1.583466
C 6.0 0.162758 -1.143991 0.893200
H 1.0 0.267127 -2.057363 1.465698
C 6.0 -0.081169 -1.194028 -0.476246
H 1.0 -0.168037 -2.148120 -0.975906
C 6.0 -0.209070 0.001175 -1.176044
H 1.0 -0.398072 0.002215 -2.240461
C 6.0 -0.087845 1.194978 -0.472651
H 1.0 -0.180019 2.150008 -0.969529
C 6.0 0.156301 1.142243 0.896633
H 1.0 0.255445 2.054433 1.471840
 $END
