!   File created by MacMolPlt 7.7.3
 $CONTRL SCFTYP=rhf RUNTYP=ENERGY MAXIT=1 $END
 $contrl ispher=1 $end
 $contrl icharg=0 mult=1 $end
 $CONTRL NPRINT=-5 $END
 $SYSTEM mwords=5000 memddi=5000 $END
 $BASIS GBASIS=CCT $END
 $SCF DIRSCF=.TRUE. $END
 $DATA
32A
C1
N 7.0 0.000442 -1.305082 -0.044115
H 1.0 -0.001421 -2.314804 0.000927
C 6.0 -1.258064 -0.692236 -0.118712
O 8.0 -2.273001 -1.364992 -0.177228
C 6.0 -1.192463 0.758961 -0.120634
H 1.0 -2.108454 1.318242 -0.201228
C 6.0 0.002815 1.374336 -0.019930
H 1.0 0.104006 2.449339 -0.010706
N 7.0 1.171822 0.670500 0.081043
H 1.0 2.052550 1.140189 0.207495
C 6.0 1.231242 -0.710896 0.122041
O 8.0 2.270527 -1.323556 0.281047
 $END
