!   File created by MacMolPlt 7.7.3
 $CONTRL SCFTYP=rhf RUNTYP=ENERGY MAXIT=1 $END
 $contrl ispher=1 $end
 $contrl icharg=-1 mult=1 $end
 $CONTRL NPRINT=-5 $END
 $SYSTEM mwords=5000 memddi=5000 $END
 $BASIS GBASIS=CCT $END
 $SCF DIRSCF=.TRUE. $END
 $DATA
4b
C1
H 1.0 -3.090970 -3.064019 4.283078
O 8.0 -2.487484 -2.581622 3.695880
C 6.0 -3.140413 -2.417239 2.423393
H 1.0 -4.139301 -1.983447 2.553718
H 1.0 -3.233650 -3.381419 1.905118
C 6.0 -2.297305 -1.491459 1.569730
H 1.0 -2.719792 -1.467733 0.560309
O 8.0 -2.332039 -0.131619 2.101564
C 6.0 -1.009000 0.310301 2.413675
H 1.0 -0.622650 0.984575 1.645435
N 7.0 -1.079722 1.100976 3.642666
C 6.0 -1.483891 0.499761 4.813298
H 1.0 -1.731735 -0.553407 4.718888
C 6.0 -1.590502 1.170816 5.984063
H 1.0 -1.903276 0.667616 6.889036
C 6.0 -1.306007 2.583903 6.027407
O 8.0 -1.366058 3.317172 7.021237
N 7.0 -0.955615 3.126713 4.782056
H 1.0 -0.769833 4.126112 4.754624
C 6.0 -0.830692 2.474208 3.572406
O 8.0 -0.541591 3.058206 2.531242
C 6.0 -0.818013 -1.875227 1.495507
H 1.0 -0.655218 -2.934108 1.706112
C 6.0 -0.142108 -0.959891 2.518724
H 1.0 -0.231446 -1.398267 3.515002
O 8.0 1.234224 -0.744178 2.252030
H 1.0 1.338082 -0.936120 1.296979
O 8.0 -0.276692 -1.531015 0.206391
P 15.0 0.263947 -2.744539 -0.780722
O 8.0 -0.763004 -3.837205 -0.810736
O 8.0 1.700060 -3.026964 -0.457843
O 8.0 0.274763 -1.884126 -2.162741
C 6.0 -0.975366 -1.420233 -2.723389
H 1.0 -1.550026 -0.885763 -1.959647
H 1.0 -1.555439 -2.275830 -3.086277
C 6.0 -0.648182 -0.490637 -3.875107
H 1.0 -1.567682 -0.268819 -4.425768
O 8.0 -0.130457 0.773279 -3.350909
C 6.0 1.181154 1.019350 -3.842430
H 1.0 1.188055 1.772520 -4.633890
N 7.0 1.972898 1.584917 -2.738215
C 6.0 1.943336 0.975499 -1.505913
H 1.0 1.303804 0.100679 -1.456839
C 6.0 2.638889 1.441060 -0.441142
H 1.0 2.588449 0.954135 0.523263
C 6.0 3.459693 2.618103 -0.579631
O 8.0 4.146819 3.145815 0.302861
N 7.0 3.432393 3.173574 -1.867048
H 1.0 3.997098 4.005837 -2.017550
C 6.0 2.733241 2.730548 -2.971764
O 8.0 2.782447 3.303395 -4.058311
C 6.0 0.423328 -1.030031 -4.831697
H 1.0 0.503999 -2.117504 -4.786955
C 6.0 1.710266 -0.337908 -4.355170
H 1.0 2.139621 -0.897663 -3.520875
O 8.0 2.692988 -0.226066 -5.367521
H 1.0 2.186915 -0.150519 -6.203389
O 8.0 0.183720 -0.600120 -6.185472
H 1.0 -0.075029 -1.374371 -6.708744
 $END
