!   File created by MacMolPlt 7.7.3
 $CONTRL SCFTYP=rhf RUNTYP=ENERGY MAXIT=10 $END
 $contrl ispher=1 $end
 $contrl icharg=0 mult=1 $end
 $CONTRL NPRINT=-5 $END
 $SYSTEM mwords=5000 memddi=5000 $END
 $BASIS GBASIS=CCT $END
 $SCF DIRSCF=.TRUE. $END
 $DATA
undecan2
C1
C 6.0 0.000000 -6.347447 -0.367820
C 6.0 0.000000 -5.086225 0.485905
C 6.0 0.000000 -3.814702 -0.351314
C 6.0 0.000000 -2.541545 0.482451
C 6.0 0.000000 -1.272242 -0.358337
C 6.0 0.000000 0.000000 0.477463
C 6.0 0.000000 1.272242 -0.358337
C 6.0 0.000000 2.541545 0.482451
C 6.0 0.000000 3.814702 -0.351314
C 6.0 0.000000 5.086225 0.485905
C 6.0 0.000000 6.347447 -0.367820
H 1.0 0.000000 -7.248043 0.245661
H 1.0 -0.881909 -6.376057 -1.009066
H 1.0 0.881909 -6.376057 -1.009066
H 1.0 0.877591 -5.082305 1.137746
H 1.0 -0.877591 -5.082305 1.137746
H 1.0 0.877365 -3.814448 -1.005695
H 1.0 -0.877365 -3.814448 -1.005695
H 1.0 0.878028 -2.538848 1.135833
H 1.0 -0.878028 -2.538848 1.135833
H 1.0 0.877968 -1.273815 -1.011962
H 1.0 -0.877968 -1.273815 -1.011962
H 1.0 0.877944 0.000000 1.131014
H 1.0 -0.877944 0.000000 1.131014
H 1.0 0.877968 1.273815 -1.011962
H 1.0 -0.877968 1.273815 -1.011962
H 1.0 0.878028 2.538848 1.135833
H 1.0 -0.878028 2.538848 1.135833
H 1.0 0.877365 3.814448 -1.005695
H 1.0 -0.877365 3.814448 -1.005695
H 1.0 0.877591 5.082305 1.137746
H 1.0 -0.877591 5.082305 1.137746
H 1.0 0.881909 6.376057 -1.009066
H 1.0 0.000000 7.248043 0.245661
H 1.0 -0.881909 6.376057 -1.009066
 $END
