!   File created by MacMolPlt 7.7.3
 $CONTRL SCFTYP=rhf RUNTYP=ENERGY MAXIT=10 $END
 $contrl ispher=1 $end
 $contrl icharg=0 mult=1 $end
 $CONTRL NPRINT=-5 $END
 $SYSTEM mwords=5000 memddi=5000 $END
 $BASIS
 GBASIS=df2tzvp !  Basis set name in the external file
 BASNAM=def2dt ! External file name, same as extbas in gms-files.*
 EXTFIL=.T. ! Tell gamess to look for an external file
 $END
 $SCF DIRSCF=.TRUE. $END
 $DATA
octane2
C1
C 6.0 -4.460471 -0.268215 0.000000
C 6.0 -3.165922 0.536615 0.000000
C 6.0 -1.923952 -0.346724 0.000000
C 6.0 -0.620456 0.442250 0.000000
C 6.0 0.620456 -0.442250 0.000000
C 6.0 1.923952 0.346724 0.000000
C 6.0 3.165922 -0.536615 0.000000
C 6.0 4.460471 0.268215 0.000000
H 1.0 -5.336991 0.380956 0.000000
H 1.0 -4.517262 -0.908855 -0.881915
H 1.0 -4.517262 -0.908855 0.881915
H 1.0 -3.137930 1.188814 0.877663
H 1.0 -3.137930 1.188814 -0.877663
H 1.0 -1.947560 -1.000295 0.878471
H 1.0 -1.947560 -1.000295 -0.878471
H 1.0 -0.595439 1.095478 0.878561
H 1.0 -0.595439 1.095478 -0.878561
H 1.0 0.595439 -1.095478 0.878561
H 1.0 0.595439 -1.095478 -0.878561
H 1.0 1.947560 1.000295 0.878471
H 1.0 1.947560 1.000295 -0.878471
H 1.0 3.137930 -1.188814 0.877663
H 1.0 3.137930 -1.188814 -0.877663
H 1.0 4.517262 0.908855 0.881915
H 1.0 5.336991 -0.380956 0.000000
H 1.0 4.517262 0.908855 -0.881915
 $END
