!   File created by MacMolPlt 7.7.3
 $CONTRL SCFTYP=rhf RUNTYP=ENERGY MAXIT=1 $END
 $contrl ispher=1 $end
 $contrl icharg=0 mult=1 $end
 $CONTRL NPRINT=-5 $END
 $SYSTEM mwords=5000 memddi=5000 $END
 $BASIS GBASIS=CCT $END
 $SCF DIRSCF=.TRUE. $END
 $DATA
16A
C1
C 6.0 0.515413 -0.473460 1.756757
H 1.0 1.575036 -0.398468 1.526072
H 1.0 0.288021 -1.480514 2.098541
H 1.0 0.270090 0.209396 2.566655
C 6.0 -0.375218 -0.155954 0.576959
O 8.0 -1.597606 -0.183547 0.667022
N 7.0 0.286297 0.155071 -0.567930
H 1.0 1.293526 0.155909 -0.563751
C 6.0 -0.418407 0.481569 -1.785664
H 1.0 -1.480655 0.408420 -1.573763
H 1.0 -0.190588 1.494438 -2.115204
H 1.0 -0.165909 -0.212860 -2.585694
 $END
