!   File created by MacMolPlt 7.7.3
 $CONTRL SCFTYP=rhf RUNTYP=ENERGY MAXIT=1 $END
 $contrl ispher=1 $end
 $contrl icharg=-1 mult=1 $end
 $CONTRL NPRINT=-5 $END
 $SYSTEM mwords=5000 memddi=5000 $END
 $BASIS GBASIS=CCD $END
 $SCF DIRSCF=.TRUE. $END
 $DATA
9a
C1
H 1.0 -0.637681 1.729953 -3.147280
O 8.0 -0.794237 0.887459 -2.691626
C 6.0 -1.458153 1.171451 -1.448168
H 1.0 -2.295402 1.861988 -1.603154
H 1.0 -0.763603 1.622641 -0.726711
C 6.0 -1.974360 -0.120149 -0.858149
H 1.0 -2.320245 0.079803 0.164094
O 8.0 -3.094702 -0.619980 -1.639001
C 6.0 -3.106070 -2.037981 -1.630887
H 1.0 -4.054600 -2.417535 -1.249571
N 7.0 -2.996921 -2.517527 -3.037538
C 6.0 -2.375692 -1.770311 -4.006653
H 1.0 -1.993624 -0.811332 -3.669312
C 6.0 -2.262438 -2.194668 -5.290463
H 1.0 -1.771155 -1.582506 -6.035302
C 6.0 -2.802323 -3.472792 -5.679071
O 8.0 -2.771874 -3.975817 -6.809465
N 7.0 -3.396932 -4.176772 -4.620554
H 1.0 -3.779438 -5.093786 -4.837474
C 6.0 -3.525480 -3.777048 -3.307517
O 8.0 -4.056838 -4.472785 -2.442465
C 6.0 -0.987070 -1.288830 -0.832584
H 1.0 -0.374759 -1.320147 -1.736925
C 6.0 -1.923885 -2.504234 -0.767707
H 1.0 -1.469348 -3.422154 -1.155857
O 8.0 -2.388005 -2.689030 0.570495
H 1.0 -1.642251 -2.417470 1.143158
O 8.0 -0.159255 -1.182171 0.321212
P 15.0 1.400657 -1.762869 0.324086
O 8.0 1.728938 -2.254971 -1.054647
O 8.0 1.555398 -2.612587 1.543930
O 8.0 2.193034 -0.373101 0.651244
C 6.0 2.276689 0.628257 -0.385274
H 1.0 1.372545 0.624359 -1.002676
H 1.0 3.137925 0.417394 -1.028244
C 6.0 2.464604 1.982984 0.255497
H 1.0 2.675642 2.709015 -0.541080
O 8.0 1.244597 2.396847 0.930586
C 6.0 1.538664 3.070807 2.136463
H 1.0 0.984828 4.009848 2.190517
N 7.0 1.090267 2.213733 3.289353
C 6.0 0.547962 0.969416 3.091548
H 1.0 0.470840 0.670239 2.055512
C 6.0 0.152324 0.171721 4.115499
H 1.0 -0.262513 -0.808254 3.920814
C 6.0 0.292628 0.620389 5.475225
O 8.0 -0.024663 0.001427 6.499525
N 7.0 0.852250 1.903732 5.584759
H 1.0 0.972612 2.273414 6.524394
C 6.0 1.263703 2.737086 4.566755
O 8.0 1.743403 3.853341 4.768468
C 6.0 3.549263 2.088719 1.322560
H 1.0 3.568606 1.183361 1.937351
C 6.0 3.061146 3.280610 2.159512
H 1.0 3.466846 3.292523 3.173541
O 8.0 3.342602 4.505608 1.479944
H 1.0 4.191997 4.359055 1.017859
O 8.0 4.812915 2.298557 0.693965
H 1.0 5.510634 2.061070 1.327489
 $END
