!   File created by MacMolPlt 7.7.3
 $CONTRL SCFTYP=rhf RUNTYP=ENERGY MAXIT=10 $END
 $contrl ispher=1 $end
 $contrl icharg=0 mult=1 $end
 $CONTRL NPRINT=-5 $END
 $SYSTEM mwords=5000 memddi=5000 $END
 $BASIS
 GBASIS=df2svpd !  Basis set name in the external file
 BASNAM=def2dt ! External file name, same as extbas in gms-files.*
 EXTFIL=.T. ! Tell gamess to look for an external file
 $END
 $SCF DIRSCF=.TRUE. $END
 $DATA
41A
C1
N 7.0 -0.022650 -1.303031 0.064531
H 1.0 -0.037897 -2.311557 0.134854
C 6.0 -1.260088 -0.683029 -0.163571
O 8.0 -2.274982 -1.349240 -0.272338
C 6.0 -1.171528 0.764738 -0.242086
H 1.0 -2.070318 1.329283 -0.420383
C 6.0 0.023251 1.371445 -0.089104
H 1.0 0.139964 2.443998 -0.136880
N 7.0 1.171707 0.662376 0.140976
H 1.0 2.053814 1.128480 0.274554
C 6.0 1.213275 -0.717618 0.242417
O 8.0 2.235451 -1.335844 0.467030
 $END
