!   File created by MacMolPlt 7.7.3
 $CONTRL SCFTYP=rhf RUNTYP=ENERGY MAXIT=1 $END
 $contrl ispher=1 $end
 $contrl icharg=0 mult=1 $end
 $CONTRL NPRINT=-5 $END
 $SYSTEM mwords=5000 memddi=5000 $END
 $BASIS GBASIS=CCT $END
 $SCF DIRSCF=.TRUE. $END
 $DATA
10
C1
C 6.0 1.393218 0.036291 -1.093768
C 6.0 0.728037 -1.188402 -1.093789
C 6.0 -0.665180 -1.224708 -1.093768
C 6.0 -1.393205 -0.036297 -1.093789
C 6.0 -0.728038 1.188417 -1.093768
C 6.0 0.665168 1.224699 -1.093789
C 6.0 0.000000 0.000000 2.622133
H 1.0 1.292959 -2.110542 -1.092228
H 1.0 -1.181323 -2.175009 -1.092212
H 1.0 -2.474262 -0.064465 -1.092228
H 1.0 -1.292951 2.110560 -1.092212
H 1.0 1.181303 2.175006 -1.092228
H 1.0 2.474275 0.064448 -1.092212
H 1.0 0.586878 0.838175 2.985891
H 1.0 -1.019319 0.089164 2.985891
H 1.0 0.000000 0.000000 1.536183
H 1.0 0.432442 -0.927338 2.985891
 $END
