!   File created by MacMolPlt 7.7.3
 $CONTRL SCFTYP=rhf RUNTYP=ENERGY MAXIT=1 $END
 $contrl ispher=1 $end
 $contrl icharg=0 mult=1 $end
 $CONTRL NPRINT=-5 $END
 $SYSTEM mwords=5000 memddi=5000 $END
 $BASIS
 GBASIS=df2svpd !  Basis set name in the external file
 BASNAM=def2dt ! External file name, same as extbas in gms-files.*
 EXTFIL=.T. ! Tell gamess to look for an external file
 $END
 $SCF DIRSCF=.TRUE. $END
 $DATA
20A
C1
C 6.0 0.554449 0.153696 0.038659
O 8.0 1.257997 1.127014 0.278412
O 8.0 1.026855 -1.048527 -0.249612
H 1.0 2.020594 -1.015722 -0.234989
C 6.0 -0.942270 0.199106 0.042856
H 1.0 -1.279840 1.204020 0.264915
H 1.0 -1.316731 -0.121054 -0.926397
H 1.0 -1.321054 -0.498534 0.786156
 $END
