!   File created by MacMolPlt 7.7.3
 $CONTRL SCFTYP=rhf RUNTYP=ENERGY MAXIT=1 $END
 $contrl ispher=1 $end
 $contrl icharg=0 mult=1 $end
 $CONTRL NPRINT=-5 $END
 $SYSTEM mwords=5000 memddi=5000 $END
 $BASIS GBASIS=N311 NGAUSS=6 NDFUNC=3 NFFUNC=1 NPFUNC=3 $END
 $SCF DIRSCF=.TRUE. $END
 $DATA
09
C1
N 7.0 -1.561581 -0.576912 -0.788368
H 1.0 -0.571182 -0.789127 -0.816440
H 1.0 -2.036569 -1.466458 -0.711532
C 6.0 -1.843912 0.224840 0.399867
H 1.0 -2.909757 0.439148 0.449654
H 1.0 -1.548920 -0.228821 1.351839
H 1.0 -1.331136 1.181262 0.315439
O 8.0 1.616330 -0.580544 -0.717545
H 1.0 1.898356 -0.210595 -1.557409
C 6.0 2.002243 0.331040 0.301891
H 1.0 1.679060 -0.098593 1.244958
H 1.0 3.083299 0.470123 0.340931
H 1.0 1.523769 1.304638 0.186715
 $END
