!   File created by MacMolPlt 7.7.3
 $CONTRL SCFTYP=rhf RUNTYP=ENERGY MAXIT=1 $END
 $contrl ispher=1 $end
 $contrl icharg=0 mult=1 $end
 $CONTRL NPRINT=-5 $END
 $SYSTEM mwords=5000 memddi=5000 $END
 $BASIS GBASIS=N311 NGAUSS=6 NDFUNC=3 NFFUNC=1 NPFUNC=3 $END
 $SCF DIRSCF=.TRUE. $END
 $DATA
32
C1
N 7.0 -0.046853 -1.219461 -0.862080
H 1.0 -0.048716 -2.229183 -0.817037
C 6.0 -1.305359 -0.606615 -0.936676
O 8.0 -2.320296 -1.279370 -0.995193
C 6.0 -1.239758 0.844582 -0.938599
H 1.0 -2.155749 1.403863 -1.019192
C 6.0 -0.044480 1.459958 -0.837895
H 1.0 0.056711 2.534960 -0.828670
N 7.0 1.124527 0.756121 -0.736921
H 1.0 2.005256 1.225810 -0.610470
C 6.0 1.183948 -0.625274 -0.695924
O 8.0 2.223232 -1.237935 -0.536918
C 6.0 0.716452 -0.443772 2.404261
H 1.0 1.712271 -0.797758 2.290043
C 6.0 -0.428152 -0.057314 2.510453
H 1.0 -1.433034 0.271386 2.610817
 $END
