!   File created by MacMolPlt 7.7.3
 $CONTRL SCFTYP=rhf RUNTYP=ENERGY MAXIT=1 $END
 $contrl ispher=1 $end
 $contrl icharg=0 mult=1 $end
 $CONTRL NPRINT=-5 $END
 $SYSTEM mwords=5000 memddi=5000 $END
 $BASIS GBASIS=CCT $END
 $SCF DIRSCF=.TRUE. $END
 $DATA
14a
C1
H 1.0 -2.973469 1.363332 0.000000
H 1.0 -0.808595 2.552992 0.000000
H 1.0 2.174557 2.040259 0.000000
H 1.0 -0.998958 -2.456713 0.000000
H 1.0 -3.072551 -1.100218 0.000000
H 1.0 1.799175 -2.148915 0.000000
H 1.0 3.496093 -0.309626 0.000000
C 6.0 2.434004 -0.130518 0.000000
C 6.0 0.265735 -0.696552 0.000000
C 6.0 -0.954163 -1.375505 0.000000
C 6.0 -2.050383 0.799209 0.000000
C 6.0 -2.108851 -0.609065 0.000000
C 6.0 0.350790 0.723517 0.000000
C 6.0 1.737073 1.056324 0.000000
C 6.0 -0.838662 1.470916 0.000000
N 7.0 1.548206 -1.179434 0.000000
 $END
