!   File created by MacMolPlt 7.7.3
 $CONTRL SCFTYP=rhf RUNTYP=ENERGY MAXIT=1 $END
 $contrl ispher=1 $end
 $contrl icharg=0 mult=1 $end
 $CONTRL NPRINT=-5 $END
 $SYSTEM mwords=5000 memddi=5000 $END
 $BASIS GBASIS=N311 NGAUSS=6 NDFUNC=3 NFFUNC=1 NPFUNC=3 $END
 $SCF DIRSCF=.TRUE. $END
 $DATA
47
C1
C 6.0 0.735573 1.207806 -2.665407
H 1.0 1.309600 2.108928 -2.832974
C 6.0 1.381471 -0.024661 -2.579358
H 1.0 2.456899 -0.079919 -2.678828
C 6.0 0.641424 -1.185848 -2.362749
H 1.0 1.142718 -2.141312 -2.291918
C 6.0 -0.744602 -1.114949 -2.234244
H 1.0 -1.318142 -2.016708 -2.067936
C 6.0 -1.390650 0.117376 -2.319045
H 1.0 -2.466041 0.173194 -2.218137
C 6.0 -0.650513 1.279001 -2.533796
H 1.0 -1.151444 2.235292 -2.597039
C 6.0 0.164490 0.247596 1.093748
H 1.0 0.286617 0.473079 0.043322
C 6.0 -0.926591 -0.507303 1.521084
H 1.0 -1.647096 -0.863817 0.797390
C 6.0 -1.087291 -0.801428 2.874034
H 1.0 -1.934399 -1.387397 3.204282
C 6.0 -0.155409 -0.340375 3.802528
H 1.0 -0.279302 -0.568341 4.852536
C 6.0 0.936176 0.414727 3.377288
H 1.0 1.659295 0.772560 4.097671
C 6.0 1.094980 0.708212 2.023797
H 1.0 1.942238 1.294287 1.693750
 $END
