!   File created by MacMolPlt 7.7.3
 $CONTRL SCFTYP=rhf RUNTYP=ENERGY MAXIT=1 $END
 $contrl ispher=1 $end
 $contrl icharg=0 mult=1 $end
 $CONTRL NPRINT=-5 $END
 $SYSTEM mwords=5000 memddi=5000 $END
 $BASIS GBASIS=CCD $END
 $SCF DIRSCF=.TRUE. $END
 $DATA
34
C1
C 6.0 -2.533309 -0.295074 -1.900036
H 1.0 -2.563627 -0.977277 -2.749607
H 1.0 -2.566978 -0.896071 -0.991453
H 1.0 -3.434426 0.315762 -1.929080
C 6.0 -1.271885 0.557461 -1.938830
H 1.0 -1.271026 1.256371 -1.098865
H 1.0 -1.266633 1.167701 -2.845011
C 6.0 -0.000135 -0.278613 -1.893581
H 1.0 -0.000159 -0.887424 -0.984548
H 1.0 -0.000365 -0.980909 -2.732589
C 6.0 1.271895 0.557187 -1.939124
H 1.0 1.270972 1.256438 -1.099479
H 1.0 1.266636 1.166988 -2.845572
C 6.0 2.533404 -0.295137 -1.899904
H 1.0 2.563919 -0.977969 -2.748963
H 1.0 3.434310 0.316060 -1.929585
H 1.0 2.567558 -0.895404 -0.990856
C 6.0 2.533557 0.294827 1.899915
H 1.0 2.568142 0.894633 0.990590
H 1.0 2.564061 0.978033 2.748660
H 1.0 3.434238 -0.316671 1.930124
C 6.0 1.271731 -0.557061 1.939219
H 1.0 1.266287 -1.166788 2.845716
H 1.0 1.270601 -1.256414 1.099638
C 6.0 -0.000044 0.279038 1.893603
H 1.0 -0.000199 0.981348 2.732588
H 1.0 0.000033 0.887815 0.984533
C 6.0 -1.271805 -0.557104 1.938875
H 1.0 -1.266423 -1.167213 2.845125
H 1.0 -1.270698 -1.256127 1.099011
C 6.0 -2.533524 0.294943 1.899897
H 1.0 -2.567717 0.895476 0.991020
H 1.0 -3.434326 -0.316356 1.929410
H 1.0 -2.564064 0.977529 2.749158
 $END
