!   File created by MacMolPlt 7.7.3
 $CONTRL SCFTYP=rhf RUNTYP=ENERGY MAXIT=10 $END
 $contrl ispher=1 $end
 $contrl icharg=0 mult=1 $end
 $CONTRL NPRINT=-5 $END
 $SYSTEM mwords=5000 memddi=5000 $END
 $BASIS
 GBASIS=df2svpd !  Basis set name in the external file
 BASNAM=def2dt ! External file name, same as extbas in gms-files.*
 EXTFIL=.T. ! Tell gamess to look for an external file
 $END
 $SCF DIRSCF=.TRUE. $END
 $DATA
20
C1
C 6.0 -1.925503 0.094535 0.009607
O 8.0 -1.221955 1.067853 0.249359
O 8.0 -1.453098 -1.107687 -0.278664
H 1.0 -0.459359 -1.074883 -0.264041
C 6.0 -3.422222 0.139945 0.013804
H 1.0 -3.759792 1.144859 0.235863
H 1.0 -3.796683 -0.180215 -0.955449
H 1.0 -3.801006 -0.557695 0.757104
C 6.0 1.925554 -0.094186 -0.011269
O 8.0 1.221936 -1.067500 -0.251057
O 8.0 1.453128 1.108249 0.276509
H 1.0 0.459339 1.075351 0.262109
C 6.0 3.422267 -0.140089 -0.013234
H 1.0 3.759846 -1.141408 -0.250759
H 1.0 3.803765 0.570264 -0.742703
H 1.0 3.793783 0.162606 0.962822
 $END
