!   File created by MacMolPlt 7.7.3
 $CONTRL SCFTYP=rhf RUNTYP=ENERGY MAXIT=1 $END
 $contrl ispher=1 $end
 $contrl icharg=0 mult=1 $end
 $CONTRL NPRINT=-5 $END
 $SYSTEM mwords=5000 memddi=5000 $END
 $BASIS GBASIS=CCT $END
 $SCF DIRSCF=.TRUE. $END
 $DATA
07A
C1
O 8.0 0.509504 0.446623 -0.864533
H 1.0 1.429408 0.276602 -0.606090
C 6.0 -0.303892 -0.077677 0.162419
H 1.0 -1.339209 0.124786 -0.100724
H 1.0 -0.189462 -1.158333 0.276410
H 1.0 -0.106349 0.387999 1.132518
 $END
