!   File created by MacMolPlt 7.7.3
 $CONTRL SCFTYP=rhf RUNTYP=ENERGY MAXIT=1 $END
 $contrl ispher=1 $end
 $contrl icharg=0 mult=1 $end
 $CONTRL NPRINT=-5 $END
 $SYSTEM mwords=5000 memddi=5000 $END
 $BASIS GBASIS=CCD $END
 $SCF DIRSCF=.TRUE. $END
 $DATA
51A
C1
C 6.0 -0.605925 0.000084 0.000000
H 1.0 -1.667930 0.006004 0.000000
C 6.0 0.605914 -0.003143 0.000000
H 1.0 1.667941 -0.002945 0.000000
 $END
