!   File created by MacMolPlt 7.7.3
 $CONTRL SCFTYP=rhf RUNTYP=ENERGY MAXIT=10 $END
 $contrl ispher=1 $end
 $contrl icharg=0 mult=1 $end
 $CONTRL NPRINT=-5 $END
 $SYSTEM mwords=5000 memddi=5000 $END
 $BASIS
 GBASIS=df2svpd !  Basis set name in the external file
 BASNAM=def2dt ! External file name, same as extbas in gms-files.*
 EXTFIL=.T. ! Tell gamess to look for an external file
 $END
 $SCF DIRSCF=.TRUE. $END
 $DATA
36B
C1
C 6.0 0.000092 -0.000006 -0.000672
C 6.0 1.422904 -0.468972 -0.294072
H 1.0 1.607344 -0.508301 -1.368592
H 1.0 2.154339 0.208701 0.148664
H 1.0 1.595168 -1.465978 0.114049
C 6.0 -0.206305 1.396556 -0.581503
H 1.0 -1.218268 1.753541 -0.384655
H 1.0 0.494614 2.107627 -0.141781
H 1.0 -0.053196 1.396752 -1.661645
C 6.0 -0.220202 0.040171 1.509182
H 1.0 -1.231419 0.374448 1.745255
H 1.0 0.482310 0.725120 1.986020
H 1.0 -0.079639 -0.948350 1.948633
C 6.0 -0.996371 -0.967783 -0.633818
H 1.0 -0.867445 -1.974759 -0.234239
H 1.0 -2.022260 -0.654010 -0.435431
H 1.0 -0.861666 -1.014758 -1.715395
 $END
