!   File created by MacMolPlt 7.7.3
 $CONTRL SCFTYP=rhf RUNTYP=ENERGY MAXIT=10 $END
 $contrl ispher=1 $end
 $contrl icharg=0 mult=1 $end
 $CONTRL NPRINT=-5 $END
 $SYSTEM mwords=5000 memddi=5000 $END
 $BASIS GBASIS=N311 NGAUSS=6 NDFUNC=3 NFFUNC=1 NPFUNC=3 $END
 $SCF DIRSCF=.TRUE. $END
 $DATA
47B
C1
C 6.0 0.160015 0.294112 -1.354704
H 1.0 0.282141 0.519596 -2.405131
C 6.0 -0.931067 -0.460786 -0.927368
H 1.0 -1.651572 -0.817301 -1.651063
C 6.0 -1.091767 -0.754912 0.425582
H 1.0 -1.938875 -1.340880 0.755829
C 6.0 -0.159884 -0.293858 1.354076
H 1.0 -0.283778 -0.521824 2.404083
C 6.0 0.931701 0.461244 0.928836
H 1.0 1.654820 0.819077 1.649218
C 6.0 1.090505 0.754729 -0.424656
H 1.0 1.937762 1.340804 -0.754703
 $END
