!   File created by MacMolPlt 7.7.3
 $CONTRL SCFTYP=rhf RUNTYP=ENERGY MAXIT=1 $END
 $contrl ispher=1 $end
 $contrl icharg=0 mult=1 $end
 $CONTRL NPRINT=-5 $END
 $SYSTEM mwords=5000 memddi=5000 $END
 $BASIS
 GBASIS=df2tzvp !  Basis set name in the external file
 BASNAM=def2dt ! External file name, same as extbas in gms-files.*
 EXTFIL=.T. ! Tell gamess to look for an external file
 $END
 $SCF DIRSCF=.TRUE. $END
 $DATA
15
C1
N 7.0 0.175879 2.641926 -0.740080
N 7.0 -1.701135 1.953074 0.294426
N 7.0 -1.522132 0.067309 2.675817
N 7.0 0.782340 0.165009 2.357622
N 7.0 1.837555 1.459288 0.605892
N 7.0 1.172038 -0.412814 -2.112239
N 7.0 -1.099115 -0.403301 -1.806371
H 1.0 -1.342298 -0.724395 3.270431
H 1.0 -2.395297 0.056263 2.173034
H 1.0 2.802611 0.313927 2.011491
H 1.0 0.757585 3.064891 -1.444779
H 1.0 2.322455 -1.631993 -0.881206
H 1.0 0.072348 -2.340522 1.664300
H 1.0 -0.263592 -3.641957 0.529622
H 1.0 1.407822 -3.122192 0.817038
H 1.0 -1.762864 3.258116 -1.390419
H 1.0 -2.004829 -0.015086 -2.032905
H 1.0 1.981907 -0.040932 -2.579787
C 6.0 0.254175 -1.788865 -0.387386
C 6.0 0.378706 -2.782865 0.717794
C 6.0 -0.593149 1.406522 0.895863
C 6.0 0.591796 1.813072 0.272070
C 6.0 1.831813 0.642374 1.662475
C 6.0 -1.071894 -1.294726 -0.728308
C 6.0 -0.449560 0.526557 1.982907
C 6.0 1.309631 -1.318600 -1.089395
C 6.0 -0.034953 0.115909 -2.510705
C 6.0 -1.188280 2.680833 -0.685489
O 8.0 -0.143210 0.957787 -3.387438
O 8.0 -2.106352 -1.604611 -0.154274
 $END
