!   File created by MacMolPlt 7.7.3
 $CONTRL SCFTYP=rhf RUNTYP=ENERGY MAXIT=10 $END
 $contrl ispher=1 $end
 $contrl icharg=0 mult=1 $end
 $CONTRL NPRINT=-5 $END
 $SYSTEM mwords=5000 memddi=5000 $END
 $BASIS GBASIS=CCD $END
 $SCF DIRSCF=.TRUE. $END
 $DATA
32B
C1
C 6.0 0.574568 -0.186907 -0.049632
H 1.0 1.570386 -0.540893 -0.163851
C 6.0 -0.570036 0.199550 0.056560
H 1.0 -1.574919 0.528251 0.156924
 $END
