!   File created by MacMolPlt 7.7.3
 $CONTRL SCFTYP=rhf RUNTYP=ENERGY MAXIT=10 $END
 $contrl ispher=1 $end
 $contrl icharg=0 mult=1 $end
 $CONTRL NPRINT=-5 $END
 $SYSTEM mwords=5000 memddi=5000 $END
 $BASIS
 GBASIS=df2svpd !  Basis set name in the external file
 BASNAM=def2dt ! External file name, same as extbas in gms-files.*
 EXTFIL=.T. ! Tell gamess to look for an external file
 $END
 $SCF DIRSCF=.TRUE. $END
 $DATA
30B
C1
C 6.0 0.655778 -0.116791 0.002983
H 1.0 1.047239 -1.123910 -0.001485
H 1.0 1.370852 0.693273 -0.001519
C 6.0 -0.655778 0.116791 0.002992
H 1.0 -1.370850 -0.693273 -0.001504
H 1.0 -1.047241 1.123910 -0.001466
 $END
