!   File created by MacMolPlt 7.7.3
 $CONTRL SCFTYP=rhf RUNTYP=ENERGY MAXIT=10 $END
 $contrl ispher=1 $end
 $contrl icharg=0 mult=1 $end
 $CONTRL NPRINT=-5 $END
 $SYSTEM mwords=5000 memddi=5000 $END
 $BASIS GBASIS=CCT $END
 $SCF DIRSCF=.TRUE. $END
 $DATA
60A
C1
C 6.0 0.381977 0.470920 0.000000
H 1.0 1.099924 1.256288 0.000000
C 6.0 -0.393737 -0.461756 0.000000
H 1.0 -1.088164 -1.265452 0.000000
 $END
