!   File created by MacMolPlt 7.7.3
 $CONTRL SCFTYP=rhf RUNTYP=ENERGY MAXIT=1 $END
 $contrl ispher=1 $end
 $contrl icharg=0 mult=1 $end
 $CONTRL NPRINT=-5 $END
 $SYSTEM mwords=5000 memddi=5000 $END
 $BASIS GBASIS=N311 NGAUSS=6 NDFUNC=3 NFFUNC=1 NPFUNC=3 $END
 $SCF DIRSCF=.TRUE. $END
 $DATA
12
C1
C 6.0 -1.246810 -1.171504 -0.696139
C 6.0 -1.246810 -1.171504 0.696139
C 6.0 0.731913 -2.264905 0.696729
C 6.0 0.731913 -2.264905 -0.696729
C 6.0 -0.337623 2.080379 1.130046
C 6.0 0.854406 1.359665 1.130631
C 6.0 0.854406 1.359665 -1.130631
C 6.0 -0.337623 2.080379 -1.130046
H 1.0 1.549181 -2.712512 1.247561
H 1.0 1.549181 -2.712512 -1.247561
H 1.0 -2.063057 -0.722003 -1.247280
H 1.0 -2.063057 -0.722003 1.247280
H 1.0 -0.809996 2.364622 2.061865
H 1.0 1.321239 1.067379 2.062399
H 1.0 1.321239 1.067379 -2.062399
H 1.0 -0.809996 2.364622 -2.061865
N 7.0 1.470559 0.991078 0.000000
N 7.0 -0.258571 -1.723260 1.414480
N 7.0 -0.258571 -1.723260 -1.414480
N 7.0 -0.951926 2.453202 0.000000
 $END
