!   File created by MacMolPlt 7.7.3
 $CONTRL SCFTYP=rhf RUNTYP=ENERGY MAXIT=1 $END
 $contrl ispher=1 $end
 $contrl icharg=0 mult=1 $end
 $CONTRL NPRINT=-5 $END
 $SYSTEM mwords=5000 memddi=5000 $END
 $BASIS GBASIS=N311 NGAUSS=6 NDFUNC=3 NFFUNC=1 NPFUNC=3 $END
 $SCF DIRSCF=.TRUE. $END
 $DATA
45B
C1
C 6.0 -2.530443 -0.301545 -0.011888
H 1.0 -2.538809 -0.963499 -0.878298
H 1.0 -2.582361 -0.927814 0.878703
H 1.0 -3.432857 0.307359 -0.044649
C 6.0 -1.269911 0.553056 -0.000818
H 1.0 -1.286562 1.226055 0.859591
H 1.0 -1.244644 1.187272 -0.889614
C 6.0 0.000008 -0.285275 0.039637
H 1.0 0.000011 -0.903065 0.942698
H 1.0 0.000075 -0.973575 -0.809604
C 6.0 1.269906 0.553101 -0.000731
H 1.0 1.286534 1.226068 0.859690
H 1.0 1.244762 1.187273 -0.889533
C 6.0 2.530429 -0.301536 -0.011678
H 1.0 2.538809 -0.963519 -0.878057
H 1.0 3.432808 0.307395 -0.044404
H 1.0 2.582246 -0.927751 0.878956
 $END
