!   File created by MacMolPlt 7.7.3
 $CONTRL SCFTYP=rhf RUNTYP=ENERGY MAXIT=1 $END
 $contrl ispher=1 $end
 $contrl icharg=0 mult=1 $end
 $CONTRL NPRINT=-5 $END
 $SYSTEM mwords=5000 memddi=5000 $END
 $BASIS GBASIS=CCD $END
 $SCF DIRSCF=.TRUE. $END
 $DATA
14
C1
C 6.0 0.020636 1.508893 -1.270161
C 6.0 -1.232970 0.951134 -1.513637
C 6.0 -1.336596 -0.248667 -2.214643
C 6.0 -0.187233 -0.889374 -2.675022
C 6.0 1.066498 -0.326486 -2.437468
C 6.0 1.170710 0.873710 -1.736210
C 6.0 -1.980358 0.402885 1.995129
C 6.0 -0.773232 1.051077 2.200473
C 6.0 0.412139 0.426316 1.778520
C 6.0 1.792572 0.780925 1.813175
C 6.0 2.486846 -0.254043 1.229105
C 6.0 0.327831 -0.849918 1.155649
C 6.0 -0.886757 -1.508282 0.954468
C 6.0 -2.037576 -0.864736 1.381418
H 1.0 -2.123391 1.442484 -1.146794
H 1.0 -0.743443 2.021413 2.679383
H 1.0 -2.309265 -0.684581 -2.398897
H 1.0 -0.268632 -1.818546 -3.223498
H 1.0 2.228721 1.676860 2.221365
H 1.0 1.958295 -0.817054 -2.805622
H 1.0 2.141745 1.309707 -1.546269
H 1.0 -2.900056 0.872415 2.317680
H 1.0 -0.931211 -2.478454 0.477175
H 1.0 0.101784 2.433595 -0.715622
H 1.0 -2.997289 -1.343354 1.240614
H 1.0 1.849285 -2.059666 0.327078
H 1.0 3.544590 -0.371503 1.063297
N 7.0 1.606357 -1.236751 0.849312
 $END
