!   File created by MacMolPlt 7.7.3
 $CONTRL SCFTYP=rhf RUNTYP=ENERGY MAXIT=1 $END
 $contrl ispher=1 $end
 $contrl icharg=0 mult=1 $end
 $CONTRL NPRINT=-5 $END
 $SYSTEM mwords=5000 memddi=5000 $END
 $BASIS GBASIS=CCT $END
 $SCF DIRSCF=.TRUE. $END
 $DATA
13
C1
N 7.0 2.011359 -1.213208 0.194924
N 7.0 1.376889 0.839746 1.027627
N 7.0 -2.011359 1.213208 0.194924
N 7.0 -1.376889 -0.839746 1.027627
H 1.0 1.727288 0.990847 -2.319015
H 1.0 1.051804 1.386223 1.816363
H 1.0 2.129464 -2.201505 0.349805
H 1.0 2.297522 -1.391060 -1.852655
H 1.0 -2.297522 1.391060 -1.852655
H 1.0 -1.727288 -0.990847 -2.319015
H 1.0 -1.051804 -1.386223 1.816363
H 1.0 -2.129464 2.201505 0.349805
C 6.0 2.025708 -0.697180 -1.071412
C 6.0 -2.025708 0.697180 -1.071412
C 6.0 1.308961 1.457535 -0.227598
C 6.0 -1.714523 -0.591965 -1.319499
C 6.0 1.645992 -0.485211 1.311718
C 6.0 -1.308961 -1.457535 -0.227598
C 6.0 1.714523 0.591965 -1.319499
C 6.0 -1.645992 0.485211 1.311718
O 8.0 1.561109 -0.971806 2.422798
O 8.0 -0.920593 -2.611087 -0.333055
O 8.0 -1.561109 0.971806 2.422798
O 8.0 0.920593 2.611087 -0.333055
 $END
