!   File created by MacMolPlt 7.7.3
 $CONTRL SCFTYP=rhf RUNTYP=ENERGY MAXIT=1 $END
 $contrl ispher=1 $end
 $contrl icharg=0 mult=1 $end
 $CONTRL NPRINT=-5 $END
 $SYSTEM mwords=5000 memddi=5000 $END
 $BASIS
 GBASIS=df2tzvp !  Basis set name in the external file
 BASNAM=def2dt ! External file name, same as extbas in gms-files.*
 EXTFIL=.T. ! Tell gamess to look for an external file
 $END
 $SCF DIRSCF=.TRUE. $END
 $DATA
25
C1
N 7.0 1.667601 0.151920 -2.052050
C 6.0 1.064479 -1.005790 -1.751043
H 1.0 1.708758 -1.874810 -1.693224
C 6.0 -0.303039 -1.131448 -1.514608
H 1.0 -0.723305 -2.094366 -1.262005
C 6.0 -1.100686 0.003929 -1.600171
H 1.0 -2.165570 -0.053091 -1.422126
C 6.0 -0.492009 1.214783 -1.915674
H 1.0 -1.066693 2.126871 -1.996031
C 6.0 0.883667 1.237076 -2.127809
H 1.0 1.383552 2.166165 -2.374096
N 7.0 -0.438604 -1.618491 2.048575
C 6.0 -1.371082 -0.657861 2.122426
H 1.0 -2.373871 -0.988816 2.364619
C 6.0 -1.109079 0.693207 1.913047
H 1.0 -1.907637 1.417712 1.991318
C 6.0 0.190349 1.082448 1.602778
H 1.0 0.432333 2.121447 1.426907
C 6.0 1.169908 0.099550 1.519417
H 1.0 2.192209 0.346296 1.270980
C 6.0 0.807428 -1.225588 1.752610
H 1.0 1.551289 -2.011142 1.696161
 $END
