!   File created by MacMolPlt 7.7.3
 $CONTRL SCFTYP=rhf RUNTYP=ENERGY MAXIT=10 $END
 $contrl ispher=1 $end
 $contrl icharg=0 mult=1 $end
 $CONTRL NPRINT=-5 $END
 $SYSTEM mwords=5000 memddi=5000 $END
 $BASIS GBASIS=CCD $END
 $SCF DIRSCF=.TRUE. $END
 $DATA
11
C1
N 7.0 -2.490408 -0.003354 -0.386535
H 1.0 -1.789822 -0.256316 -1.075247
H 1.0 -3.381952 -0.290811 -0.768062
C 6.0 -2.226214 -0.752016 0.841159
H 1.0 -2.977849 -0.503456 1.588327
H 1.0 -2.208723 -1.840019 0.727214
H 1.0 -1.260242 -0.449217 1.242610
C 6.0 0.336192 1.872374 -0.636960
H 1.0 0.460810 2.283550 -1.636004
H 1.0 0.842763 2.513366 0.080825
H 1.0 -0.730220 1.845844 -0.418538
C 6.0 0.848184 0.454576 -0.634666
O 8.0 0.388204 -0.411160 -1.373840
N 7.0 1.834666 0.181544 0.257665
H 1.0 2.234427 0.936476 0.783018
C 6.0 2.423112 -1.138047 0.335165
H 1.0 1.634935 -1.879377 0.242144
H 1.0 3.144372 -1.310042 -0.463380
H 1.0 2.917765 -1.253915 1.295104
 $END
