!   File created by MacMolPlt 7.7.3
 $CONTRL SCFTYP=rhf RUNTYP=ENERGY MAXIT=10 $END
 $contrl ispher=1 $end
 $contrl icharg=0 mult=1 $end
 $CONTRL NPRINT=-5 $END
 $SYSTEM mwords=5000 memddi=5000 $END
 $BASIS GBASIS=CCT $END
 $SCF DIRSCF=.TRUE. $END
 $DATA
46A
C1
C 6.0 1.692226 0.838546 0.132643
H 1.0 1.272212 1.840118 0.194936
H 1.0 2.267457 0.752584 -0.787464
H 1.0 2.371737 0.677893 0.964771
C 6.0 0.646772 -0.251579 0.150017
O 8.0 0.938857 -1.426413 0.333100
N 7.0 -0.629994 0.170955 -0.064267
H 1.0 -0.784636 1.148094 -0.232069
C 6.0 -1.739819 -0.751301 -0.158028
H 1.0 -1.349321 -1.740728 0.059003
H 1.0 -2.514556 -0.505312 0.565480
H 1.0 -2.170935 -0.752857 -1.158121
 $END
