 $CONTRL SCFTYP=rhf RUNTYP=ENERGY MAXIT=10 $END 
 $contrl ispher=1 $end
 $contrl icharg=0 mult=1 $end
 $CONTRL NPRINT=-5 $END
 $SYSTEM mwords=5000 memddi=5000 $END
 $BASIS
 GBASIS=df2tzvp !  Basis set name in the external file
 BASNAM=def2dt ! External file name, same as extbas in gms-files.*
 EXTFIL=.T. ! Tell gamess to look for an external file
 $END
 $SCF DIRSCF=.TRUE. $END
 $DATA
8 water molecules
C1
H     1.0     1.17391098    -0.41575301    -3.60995197
H     1.0    -0.17480500     0.49828100    -3.49885392
O     8.0     0.56394899     0.20319501    -4.10489321
H     1.0    -1.19248295    -1.96735704    -1.45167696
H     1.0    -0.73825997    -3.43703103    -1.99992502
O     8.0    -0.46738499    -2.47823501    -1.91357803
H     1.0    -4.44740200     1.95622599     0.90810001
H     1.0    -3.47236609     1.08701897     1.88821197
O     8.0    -3.50512600     1.82829201     1.21772003
H     1.0     1.29886699    -0.36695200     2.20760798
H     1.0     2.37860990    -1.58008301     2.03641891
O     8.0     1.48849702    -1.32664204     2.41534305
H     1.0     2.52488494     2.65235996    -2.34951901
H     1.0     2.22552800     1.41211295    -3.36883712
O     8.0     2.60298491     2.33523512    -3.29474306
H     1.0    -3.24993801     3.56662893    -3.56752706
H     1.0    -3.32429504     1.93529904    -3.55918097
O     8.0    -3.00437808     2.73550296    -4.06657219
H     1.0     0.96956003    -3.25740290     0.84199202
H     1.0     0.14036800    -3.60907006     2.20419908
O     8.0     0.06362300    -3.27354908     1.26523399
H     1.0     0.66240901    -1.24440300     4.65599108
H     1.0    -0.97051901    -1.24679399     4.67536592
O     8.0    -0.15494400    -0.66819602     4.66195488
 $END
