!   File created by MacMolPlt 7.7.3
 $CONTRL SCFTYP=rhf RUNTYP=ENERGY MAXIT=10 $END
 $contrl ispher=1 $end
 $contrl icharg=0 mult=1 $end
 $CONTRL NPRINT=-5 $END
 $SYSTEM mwords=5000 memddi=5000 $END
 $BASIS GBASIS=N311 NGAUSS=6 NDFUNC=3 NFFUNC=1 NPFUNC=3 $END
 $SCF DIRSCF=.TRUE. $END
 $DATA
24
C1
C 6.0 0.193513 1.121173 -1.744204
H 1.0 0.838709 1.986577 -1.677007
C 6.0 0.739103 -0.159074 -1.680511
H 1.0 1.805822 -0.286922 -1.558001
C 6.0 -0.092248 -1.274349 -1.762094
H 1.0 0.331312 -2.268255 -1.709994
C 6.0 -1.468710 -1.109896 -1.905058
H 1.0 -2.113588 -1.976096 -1.968458
C 6.0 -2.014658 0.171228 -1.966290
H 1.0 -3.082915 0.299399 -2.078448
C 6.0 -1.182960 1.286821 -1.888146
H 1.0 -1.606033 2.281178 -1.937631
C 6.0 1.468628 1.109935 1.905575
H 1.0 2.113473 1.976119 1.969326
C 6.0 2.014581 -0.171216 1.967095
H 1.0 3.082788 -0.299363 2.079839
C 6.0 1.182932 -1.286816 1.888444
H 1.0 1.606013 -2.281169 1.938098
C 6.0 -0.193470 -1.121181 1.743728
H 1.0 -0.838573 -1.986592 1.676095
C 6.0 -0.739030 0.159051 1.679762
H 1.0 -1.805658 0.286881 1.556583
C 6.0 0.092247 1.274332 1.761833
H 1.0 -0.331278 2.268237 1.709464
 $END
