!   File created by MacMolPlt 7.7.3
 $CONTRL SCFTYP=rhf RUNTYP=ENERGY MAXIT=10 $END
 $contrl ispher=1 $end
 $contrl icharg=0 mult=1 $end
 $CONTRL NPRINT=-5 $END
 $SYSTEM mwords=5000 memddi=5000 $END
 $BASIS GBASIS=N311 NGAUSS=6 NDFUNC=3 NFFUNC=1 NPFUNC=3 $END
 $SCF DIRSCF=.TRUE. $END
 $DATA
F22f
C1
C 6.0 1.877449 0.420184 2.757144
C 6.0 1.598694 -0.367672 4.049488
C 6.0 1.538398 0.525819 5.310949
C 6.0 0.768306 -0.105417 6.498951
C 6.0 -0.768306 0.105417 6.498951
C 6.0 -1.538398 -0.525819 5.310949
C 6.0 -1.598694 0.367672 4.049488
C 6.0 -1.877449 -0.420184 2.757144
C 6.0 -1.736051 0.438510 1.488580
C 6.0 -1.889892 -0.371685 0.190496
C 6.0 -1.708501 0.478627 -1.078230
C 6.0 -1.861426 -0.334355 -2.374768
C 6.0 -1.692183 0.514179 -3.646305
C 6.0 -1.857928 -0.299634 -4.941855
C 6.0 -1.704131 0.561813 -6.209077
C 6.0 1.736051 -0.438510 1.488580
C 6.0 1.889892 0.371685 0.190496
C 6.0 1.708501 -0.478627 -1.078230
C 6.0 1.861426 0.334355 -2.374768
C 6.0 1.692183 -0.514179 -3.646305
C 6.0 1.857928 0.299634 -4.941855
C 6.0 1.704131 -0.561813 -6.209077
H 1.0 2.882762 0.871751 2.794950
H 1.0 1.161895 1.257320 2.696053
H 1.0 0.649612 -0.901891 3.925129
H 1.0 2.369250 -1.143063 4.188985
H 1.0 1.068407 1.489210 5.054410
H 1.0 2.567451 0.762095 5.623760
H 1.0 0.978992 -1.188084 6.529149
H 1.0 1.157440 0.314181 7.439776
H 1.0 -0.978992 1.188084 6.529149
H 1.0 -1.157440 -0.314181 7.439776
H 1.0 -1.068407 -1.489210 5.054410
H 1.0 -2.567451 -0.762095 5.623760
H 1.0 -0.649612 0.901891 3.925129
H 1.0 -2.369250 1.143063 4.188985
H 1.0 -1.161895 -1.257320 2.696053
H 1.0 -2.882762 -0.871751 2.794950
H 1.0 -0.743981 0.916634 1.494712
H 1.0 -2.479415 1.252825 1.505082
H 1.0 -1.146667 -1.186382 0.187495
H 1.0 -2.882306 -0.852501 0.170615
H 1.0 -0.711955 0.945741 -1.059422
H 1.0 -2.443401 1.300936 -1.074715
H 1.0 -1.117895 -1.148145 -2.379953
H 1.0 -2.853433 -0.816435 -2.387791
H 1.0 -0.696515 0.983109 -3.639133
H 1.0 -2.428326 1.335584 -3.635998
H 1.0 -1.111866 -1.109937 -4.951911
H 1.0 -2.847896 -0.784126 -4.938032
H 1.0 -0.709351 1.028344 -6.241091
H 1.0 -1.825667 -0.038594 -7.122575
H 1.0 -2.456857 1.364915 -6.224868
H 1.0 0.743981 -0.916634 1.494712
H 1.0 2.479415 -1.252825 1.505082
H 1.0 1.146667 1.186382 0.187495
H 1.0 2.882306 0.852501 0.170615
H 1.0 0.711955 -0.945741 -1.059422
H 1.0 2.443401 -1.300936 -1.074715
H 1.0 1.117895 1.148145 -2.379953
H 1.0 2.853433 0.816435 -2.387791
H 1.0 0.696515 -0.983109 -3.639133
H 1.0 2.428326 -1.335584 -3.635998
H 1.0 1.111866 1.109937 -4.951911
H 1.0 2.847896 0.784126 -4.938032
H 1.0 0.709351 -1.028344 -6.241091
H 1.0 1.825667 0.038594 -7.122575
H 1.0 2.456857 -1.364915 -6.224868
 $END
