!   File created by MacMolPlt 7.7.3
 $CONTRL SCFTYP=rhf RUNTYP=ENERGY MAXIT=1 $END
 $contrl ispher=1 $end
 $contrl icharg=0 mult=1 $end
 $CONTRL NPRINT=-5 $END
 $SYSTEM mwords=5000 memddi=5000 $END
 $BASIS GBASIS=N311 NGAUSS=6 NDFUNC=3 NFFUNC=1 NPFUNC=3 $END
 $SCF DIRSCF=.TRUE. $END
 $DATA
15
C1
C 6.0 -1.944685 0.374674 1.997887
H 1.0 -2.426478 1.060950 2.689877
H 1.0 -0.893620 0.634980 1.898836
H 1.0 -2.037239 -0.626303 2.415042
C 6.0 -2.691728 0.420425 0.682818
O 8.0 -3.903632 0.236823 0.625349
N 7.0 -1.913239 0.671219 -0.399220
H 1.0 -0.916507 0.787866 -0.267404
C 6.0 -2.470237 0.755096 -1.728964
H 1.0 -3.535206 0.558801 -1.649874
H 1.0 -2.320984 1.745242 -2.157540
H 1.0 -2.019811 0.017303 -2.392370
C 6.0 0.798593 -1.686396 0.277401
H 1.0 1.356818 -2.596399 0.071493
H 1.0 -0.130099 -1.692925 -0.286925
H 1.0 0.539374 -1.662949 1.334342
C 6.0 1.566229 -0.431984 -0.058836
O 8.0 1.021042 0.669453 -0.115808
N 7.0 2.892987 -0.600798 -0.272584
H 1.0 3.269308 -1.528043 -0.195827
C 6.0 3.780225 0.505668 -0.561533
H 1.0 3.166033 1.396478 -0.641356
H 1.0 4.507640 0.645134 0.235871
H 1.0 4.305216 0.345687 -1.500675
 $END
