!   File created by MacMolPlt 7.7.3
 $CONTRL SCFTYP=rhf RUNTYP=ENERGY MAXIT=10 $END
 $contrl ispher=1 $end
 $contrl icharg=0 mult=1 $end
 $CONTRL NPRINT=-5 $END
 $SYSTEM mwords=5000 memddi=5000 $END
 $BASIS
 GBASIS=df2tzvp !  Basis set name in the external file
 BASNAM=def2dt ! External file name, same as extbas in gms-files.*
 EXTFIL=.T. ! Tell gamess to look for an external file
 $END
 $SCF DIRSCF=.TRUE. $END
 $DATA
35B
C1
C 6.0 0.000009 -0.000209 0.000771
C 6.0 0.001081 -0.140340 1.520504
H 1.0 -0.885955 0.323736 1.953873
H 1.0 0.010332 -1.191120 1.813514
H 1.0 0.879741 0.339325 1.954147
C 6.0 -1.239446 -0.681861 -0.573128
H 1.0 -1.262746 -0.592904 -1.659957
H 1.0 -1.251532 -1.743137 -0.320115
H 1.0 -2.150390 -0.229570 -0.178043
C 6.0 1.252614 -0.657750 -0.572700
H 1.0 1.273941 -0.569464 -1.659671
H 1.0 1.285745 -1.718310 -0.318607
H 1.0 2.154426 -0.187106 -0.178278
C 6.0 -0.014239 1.479584 -0.373851
H 1.0 0.863527 1.990171 0.025105
H 1.0 -0.014763 1.606039 -1.457502
H 1.0 -0.902345 1.972917 0.023938
 $END
