!   File created by MacMolPlt 7.7.3
 $CONTRL SCFTYP=rhf RUNTYP=ENERGY MAXIT=10 $END
 $contrl ispher=1 $end
 $contrl icharg=0 mult=1 $end
 $CONTRL NPRINT=-5 $END
 $SYSTEM mwords=5000 memddi=5000 $END
 $BASIS GBASIS=N311 NGAUSS=6 NDFUNC=3 NFFUNC=1 NPFUNC=3 $END
 $SCF DIRSCF=.TRUE. $END
 $DATA
66B
C1
N 7.0 -1.129862 -1.134281 -0.173181
C 6.0 -0.791426 -0.321936 -1.184893
H 1.0 -1.334093 -0.466474 -2.110274
C 6.0 0.179903 0.670197 -1.084526
H 1.0 0.404756 1.294538 -1.937377
C 6.0 0.840743 0.839739 0.127738
H 1.0 1.598597 1.601976 0.244123
C 6.0 0.500610 0.004776 1.186861
H 1.0 0.983199 0.095238 2.149562
C 6.0 -0.483171 -0.960013 0.987678
H 1.0 -0.769256 -1.623760 1.794289
 $END
