!   File created by MacMolPlt 7.7.3
 $CONTRL SCFTYP=rhf RUNTYP=ENERGY MAXIT=1 $END
 $contrl ispher=1 $end
 $contrl icharg=0 mult=1 $end
 $CONTRL NPRINT=-5 $END
 $SYSTEM mwords=5000 memddi=5000 $END
 $BASIS
 GBASIS=df2svpd !  Basis set name in the external file
 BASNAM=def2dt ! External file name, same as extbas in gms-files.*
 EXTFIL=.T. ! Tell gamess to look for an external file
 $END
 $SCF DIRSCF=.TRUE. $END
 $DATA
40
C1
C 6.0 0.312321 0.561306 -2.549838
H 1.0 0.742504 1.553651 -2.564971
C 6.0 1.142550 -0.557792 -2.510475
H 1.0 2.216879 -0.433968 -2.494187
C 6.0 0.588172 -1.836405 -2.492393
H 1.0 1.232280 -2.704559 -2.461315
C 6.0 -0.796290 -1.996093 -2.513574
H 1.0 -1.226406 -2.988162 -2.497900
C 6.0 -1.626525 -0.877191 -2.552369
H 1.0 -2.700754 -1.001068 -2.566722
C 6.0 -1.072297 0.401488 -2.570563
H 1.0 -1.716606 1.269683 -2.600617
C 6.0 0.170836 0.506414 1.788157
C 6.0 1.617085 0.685202 1.333195
H 1.0 2.032941 1.618479 1.716618
H 1.0 2.240484 -0.135414 1.692049
H 1.0 1.677694 0.704593 0.244261
C 6.0 0.116445 0.475043 3.313022
H 1.0 -0.909345 0.347623 3.662110
H 1.0 0.711850 -0.350644 3.705576
H 1.0 0.504739 1.402928 3.735928
C 6.0 -0.378544 -0.803078 1.227861
H 1.0 -1.413418 -0.953353 1.540532
H 1.0 0.207912 -1.652052 1.583672
H 1.0 -0.349764 -0.803531 0.137547
C 6.0 -0.670537 1.670986 1.271951
H 1.0 -0.648996 1.707016 0.181953
H 1.0 -1.710326 1.567216 1.586434
H 1.0 -0.294884 2.621680 1.654058
 $END
