!   File created by MacMolPlt 7.7.3
 $CONTRL SCFTYP=rhf RUNTYP=ENERGY MAXIT=1 $END
 $contrl ispher=1 $end
 $contrl icharg=0 mult=1 $end
 $CONTRL NPRINT=-5 $END
 $SYSTEM mwords=5000 memddi=5000 $END
 $BASIS GBASIS=N311 NGAUSS=6 NDFUNC=3 NFFUNC=1 NPFUNC=3 $END
 $SCF DIRSCF=.TRUE. $END
 $DATA
61A
C1
C 6.0 -2.524043 -0.105057 0.354109
H 1.0 -2.739415 -0.697909 -0.534792
H 1.0 -2.475021 -0.788429 1.201598
H 1.0 -3.360723 0.574961 0.510175
C 6.0 -1.210396 0.649296 0.192174
H 1.0 -1.037397 1.280449 1.067477
H 1.0 -1.274874 1.325463 -0.663684
C 6.0 -0.022195 -0.284693 0.002761
H 1.0 0.060747 -0.945121 0.870813
H 1.0 -0.209547 -0.935981 -0.856015
C 6.0 1.294304 0.451192 -0.208226
H 1.0 1.462941 1.137789 0.625221
H 1.0 1.217397 1.073761 -1.102519
C 6.0 2.478879 -0.496843 -0.339766
H 1.0 2.340044 -1.173196 -1.182983
H 1.0 3.412803 0.041711 -0.493194
H 1.0 2.586497 -1.107392 0.556850
 $END
