!   File created by MacMolPlt 7.7.3
 $CONTRL SCFTYP=rhf RUNTYP=ENERGY MAXIT=1 $END
 $contrl ispher=1 $end
 $contrl icharg=0 mult=1 $end
 $CONTRL NPRINT=-5 $END
 $SYSTEM mwords=5000 memddi=5000 $END
 $BASIS
 GBASIS=df2tzvp !  Basis set name in the external file
 BASNAM=def2dt ! External file name, same as extbas in gms-files.*
 EXTFIL=.T. ! Tell gamess to look for an external file
 $END
 $SCF DIRSCF=.TRUE. $END
 $DATA
43B
C1
C 6.0 -0.000200 -0.000231 -0.001069
C 6.0 -1.316946 0.741057 0.213804
H 1.0 -2.024017 0.122851 0.768667
H 1.0 -1.157446 1.661242 0.777989
H 1.0 -1.774656 1.002554 -0.741349
C 6.0 0.615237 -0.353669 1.350209
H 1.0 1.558399 -0.886043 1.219427
H 1.0 0.812258 0.546072 1.935011
H 1.0 -0.056057 -0.991406 1.926945
C 6.0 0.964925 0.893246 -0.776858
H 1.0 1.913495 0.380652 -0.947212
H 1.0 1.170215 1.811383 -0.223431
H 1.0 0.542529 1.171733 -1.744322
C 6.0 -0.261517 -1.280266 -0.791434
H 1.0 -0.725255 -1.058432 -1.754058
H 1.0 0.671060 -1.818665 -0.971070
H 1.0 -0.932025 -1.942080 -0.241249
 $END
