!   File created by MacMolPlt 7.7.3
 $CONTRL SCFTYP=rhf RUNTYP=ENERGY MAXIT=10 $END
 $contrl ispher=1 $end
 $contrl icharg=0 mult=1 $end
 $CONTRL NPRINT=-5 $END
 $SYSTEM mwords=5000 memddi=5000 $END
 $BASIS
 GBASIS=df2tzvp !  Basis set name in the external file
 BASNAM=def2dt ! External file name, same as extbas in gms-files.*
 EXTFIL=.T. ! Tell gamess to look for an external file
 $END
 $SCF DIRSCF=.TRUE. $END
 $DATA
44B
C1
C 6.0 -2.532690 -0.300497 -0.014370
H 1.0 -2.562184 -0.913518 -0.915560
H 1.0 -2.568824 -0.974718 0.841247
H 1.0 -3.433862 0.310520 0.002876
C 6.0 -1.271254 0.552179 0.021448
H 1.0 -1.271660 1.172272 0.920842
H 1.0 -1.262865 1.239087 -0.827612
C 6.0 0.000021 -0.285379 -0.005495
H 1.0 -0.000134 -0.972052 0.846337
H 1.0 0.000162 -0.912957 -0.902137
C 6.0 1.271241 0.552207 0.021910
H 1.0 1.271514 1.172018 0.921395
H 1.0 1.263046 1.239282 -0.826998
C 6.0 2.532692 -0.300517 -0.013915
H 1.0 2.562316 -0.913374 -0.915224
H 1.0 3.433870 0.310419 0.003663
H 1.0 2.568611 -0.974973 0.841591
 $END
