!   File created by MacMolPlt 7.7.3
 $CONTRL SCFTYP=rhf RUNTYP=ENERGY MAXIT=10 $END
 $contrl ispher=1 $end
 $contrl icharg=0 mult=1 $end
 $CONTRL NPRINT=-5 $END
 $SYSTEM mwords=5000 memddi=5000 $END
 $BASIS
 GBASIS=df2tzvp !  Basis set name in the external file
 BASNAM=def2dt ! External file name, same as extbas in gms-files.*
 EXTFIL=.T. ! Tell gamess to look for an external file
 $END
 $SCF DIRSCF=.TRUE. $END
 $DATA
57
C1
C 6.0 0.575385 1.064052 -1.883065
H 1.0 1.178544 1.961573 -1.890523
C 6.0 1.185773 -0.186742 -1.969548
H 1.0 2.262177 -0.258806 -2.041410
C 6.0 0.408328 -1.343855 -1.961911
H 1.0 0.881822 -2.313561 -2.030529
C 6.0 -0.979574 -1.251230 -1.864699
H 1.0 -1.582576 -2.148899 -1.859192
C 6.0 -1.590672 -0.000933 -1.775650
H 1.0 -2.666908 0.071271 -1.699562
C 6.0 -0.813081 1.157234 -1.786318
H 1.0 -1.287446 2.127028 -1.721465
C 6.0 0.412227 1.969785 1.998034
H 1.0 0.054082 2.135516 0.984741
H 1.0 1.436811 2.326494 2.079476
H 1.0 -0.191870 2.543421 2.696387
C 6.0 0.375381 0.516622 2.413743
O 8.0 0.660009 0.164260 3.552281
N 7.0 0.002986 -0.349095 1.434502
H 1.0 -0.158142 0.008896 0.508433
C 6.0 -0.033807 -1.775974 1.652589
H 1.0 0.044280 -1.942882 2.722585
H 1.0 -0.969048 -2.194325 1.285851
H 1.0 0.795319 -2.279847 1.155251
 $END
