!   File created by MacMolPlt 7.7.3
 $CONTRL SCFTYP=rhf RUNTYP=ENERGY MAXIT=10 $END
 $contrl ispher=1 $end
 $contrl icharg=0 mult=1 $end
 $CONTRL NPRINT=-5 $END
 $SYSTEM mwords=5000 memddi=5000 $END
 $BASIS GBASIS=N311 NGAUSS=6 NDFUNC=3 NFFUNC=1 NPFUNC=3 $END
 $SCF DIRSCF=.TRUE. $END
 $DATA
27
C1
C 6.0 1.205227 0.858192 -1.530088
H 1.0 1.852594 1.710688 -1.373653
C 6.0 1.755478 -0.396504 -1.785072
H 1.0 2.829517 -0.517842 -1.828948
C 6.0 0.920859 -1.494473 -1.990262
H 1.0 1.347329 -2.467544 -2.193881
C 6.0 -0.462635 -1.336487 -1.938270
H 1.0 -1.110589 -2.187840 -2.097927
C 6.0 -1.013005 -0.082010 -1.677940
H 1.0 -2.086206 0.038928 -1.624992
C 6.0 -0.178812 1.015423 -1.476095
H 1.0 -0.606076 1.987681 -1.272116
N 7.0 -2.011952 0.156161 1.802037
C 6.0 -1.397066 1.313829 2.082102
H 1.0 -2.044670 2.167000 2.244614
C 6.0 -0.014851 1.454676 2.172272
H 1.0 0.416998 2.418327 2.403489
C 6.0 0.786101 0.337697 1.958058
H 1.0 1.863670 0.408081 2.012893
C 6.0 0.165549 -0.870958 1.664399
H 1.0 0.741323 -1.766580 1.480324
C 6.0 -1.224965 -0.908996 1.598949
H 1.0 -1.733818 -1.837449 1.370107
 $END
