!   File created by MacMolPlt 7.7.3
 $CONTRL SCFTYP=rhf RUNTYP=ENERGY MAXIT=1 $END
 $contrl ispher=1 $end
 $contrl icharg=-1 mult=1 $end
 $CONTRL NPRINT=-5 $END
 $SYSTEM mwords=5000 memddi=5000 $END
 $BASIS
 GBASIS=df2svpd !  Basis set name in the external file
 BASNAM=def2dt ! External file name, same as extbas in gms-files.*
 EXTFIL=.T. ! Tell gamess to look for an external file
 $END
 $SCF DIRSCF=.TRUE. $END
 $DATA
2p
C1
H 1.0 -2.800459 -1.439761 2.793686
O 8.0 -2.665814 -1.108114 1.891541
C 6.0 -2.579461 -2.239220 1.004954
H 1.0 -3.469475 -2.873539 1.098748
H 1.0 -1.688070 -2.841662 1.226037
C 6.0 -2.471054 -1.727348 -0.417349
H 1.0 -2.264387 -2.575618 -1.076172
O 8.0 -3.736848 -1.131824 -0.841384
C 6.0 -3.545733 0.231646 -1.204317
H 1.0 -3.542275 0.362112 -2.289424
N 7.0 -4.692893 0.998884 -0.706946
C 6.0 -4.998619 0.942444 0.633233
H 1.0 -4.342104 0.302664 1.217953
C 6.0 -6.043294 1.611640 1.174766
H 1.0 -6.257242 1.542943 2.232785
C 6.0 -6.891770 2.419737 0.333698
O 8.0 -7.869611 3.084475 0.695675
N 7.0 -6.527160 2.396116 -1.020754
H 1.0 -7.101353 2.941687 -1.658645
C 6.0 -5.473776 1.724665 -1.607654
O 8.0 -5.254296 1.767134 -2.816341
C 6.0 -1.399452 -0.650215 -0.618696
H 1.0 -0.620809 -0.682035 0.146215
C 6.0 -2.196614 0.660421 -0.590571
H 1.0 -2.340244 0.972373 0.446099
O 8.0 -1.581480 1.736389 -1.276683
H 1.0 -1.173347 1.343864 -2.072996
O 8.0 -0.820103 -0.754752 -1.935606
P 15.0 0.635738 -1.525335 -2.058111
O 8.0 0.918602 -1.568871 -3.528648
O 8.0 0.630459 -2.742879 -1.186082
O 8.0 1.656997 -0.489625 -1.310816
C 6.0 1.953625 0.797269 -1.893592
H 1.0 1.244474 1.538037 -1.509855
H 1.0 1.876331 0.740645 -2.984865
C 6.0 3.370333 1.175306 -1.505947
H 1.0 3.627382 2.130436 -1.975034
O 8.0 3.467210 1.352181 -0.058486
C 6.0 4.364106 0.386593 0.494597
H 1.0 5.315281 0.853878 0.760192
N 7.0 3.805556 -0.103754 1.757294
C 6.0 2.649622 -0.852656 1.751723
H 1.0 2.230088 -1.032192 0.767044
C 6.0 2.066069 -1.310480 2.884054
H 1.0 1.161809 -1.903588 2.846498
C 6.0 2.644887 -0.995913 4.167221
O 8.0 2.218970 -1.347437 5.273182
N 7.0 3.785948 -0.183643 4.085983
H 1.0 4.214397 0.092424 4.966474
C 6.0 4.407828 0.299866 2.953468
O 8.0 5.392320 1.033744 3.004925
C 6.0 4.406658 0.106707 -1.878326
H 1.0 4.070278 -0.521646 -2.705196
C 6.0 4.583566 -0.696315 -0.579163
H 1.0 3.814410 -1.467939 -0.517754
O 8.0 5.847144 -1.329653 -0.479561
H 1.0 6.459675 -0.748345 -0.977367
O 8.0 5.683052 0.700428 -2.187460
H 1.0 5.844932 0.597650 -3.138245
 $END
