!   File created by MacMolPlt 7.7.3
 $CONTRL SCFTYP=rhf RUNTYP=ENERGY MAXIT=10 $END
 $contrl ispher=1 $end
 $contrl icharg=0 mult=1 $end
 $CONTRL NPRINT=-5 $END
 $SYSTEM mwords=5000 memddi=5000 $END
 $BASIS GBASIS=N311 NGAUSS=6 NDFUNC=3 NFFUNC=1 NPFUNC=3 $END
 $SCF DIRSCF=.TRUE. $END
 $DATA
66
C1
N 7.0 -2.558303 -0.118383 -0.520577
H 1.0 -1.961690 -0.934077 -0.441875
H 1.0 -3.486913 -0.422668 -0.258439
C 6.0 -2.096043 0.894431 0.426877
H 1.0 -2.737396 1.771455 0.360398
H 1.0 -2.068002 0.575864 1.473932
H 1.0 -1.090813 1.208645 0.150417
N 7.0 0.324607 -1.404759 -0.281429
C 6.0 0.663043 -0.592415 -1.293142
H 1.0 0.120376 -0.736953 -2.218523
C 6.0 1.634372 0.399719 -1.192775
H 1.0 1.859225 1.024059 -2.045625
C 6.0 2.295212 0.569260 0.019490
H 1.0 3.053066 1.331497 0.135874
C 6.0 1.955079 -0.265703 1.078613
H 1.0 2.437668 -0.175240 2.041314
C 6.0 0.971298 -1.230492 0.879429
H 1.0 0.685214 -1.894239 1.686040
 $END
