!   File created by MacMolPlt 7.7.3
 $CONTRL SCFTYP=rhf RUNTYP=ENERGY MAXIT=1 $END
 $contrl ispher=1 $end
 $contrl icharg=-1 mult=1 $end
 $CONTRL NPRINT=-5 $END
 $SYSTEM mwords=5000 memddi=5000 $END
 $BASIS
 GBASIS=df2svpd !  Basis set name in the external file
 BASNAM=def2dt ! External file name, same as extbas in gms-files.*
 EXTFIL=.T. ! Tell gamess to look for an external file
 $END
 $SCF DIRSCF=.TRUE. $END
 $DATA
1a
C1
H 1.0 -5.020963 2.622594 0.945546
O 8.0 -4.240039 2.188895 0.566550
C 6.0 -4.492882 1.964778 -0.828899
H 1.0 -4.954213 2.847784 -1.286726
H 1.0 -5.162346 1.105282 -0.971604
C 6.0 -3.194121 1.660329 -1.536937
H 1.0 -3.427565 1.407266 -2.578706
O 8.0 -2.321998 2.831052 -1.536356
C 6.0 -0.973221 2.435899 -1.382441
H 1.0 -0.347994 2.913683 -2.138356
N 7.0 -0.472512 2.909250 -0.051681
C 6.0 -1.324058 3.327231 0.939196
H 1.0 -2.378467 3.250169 0.696582
C 6.0 -0.880202 3.792637 2.133839
H 1.0 -1.577403 4.117835 2.894468
C 6.0 0.530983 3.877318 2.398680
O 8.0 1.070353 4.299783 3.427096
N 7.0 1.326850 3.403893 1.339064
H 1.0 2.334547 3.443569 1.468435
C 6.0 0.906355 2.914354 0.119620
O 8.0 1.683732 2.537390 -0.757328
C 6.0 -2.325023 0.551737 -0.937911
H 1.0 -2.331269 0.592326 0.155843
C 6.0 -0.942064 0.909310 -1.493476
H 1.0 -0.106878 0.464647 -0.947474
O 8.0 -0.862350 0.584276 -2.883683
H 1.0 -1.447121 -0.184724 -3.021412
O 8.0 -2.799443 -0.726110 -1.374766
P 15.0 -2.612847 -2.020857 -0.354058
O 8.0 -3.378970 -3.123978 -1.015778
O 8.0 -2.847689 -1.585407 1.057537
O 8.0 -1.001419 -2.323086 -0.438472
C 6.0 -0.447871 -2.799328 -1.681797
H 1.0 -0.713736 -2.122073 -2.499405
H 1.0 -0.843710 -3.794898 -1.909441
C 6.0 1.055174 -2.883119 -1.561513
H 1.0 1.446882 -3.283567 -2.506107
O 8.0 1.611991 -1.557701 -1.346048
C 6.0 2.762628 -1.636422 -0.522428
H 1.0 3.618095 -1.164558 -1.006269
N 7.0 2.512421 -0.874214 0.734713
C 6.0 1.247447 -0.709385 1.239610
H 1.0 0.455460 -1.148085 0.641256
C 6.0 1.004215 -0.045895 2.397210
H 1.0 -0.005734 0.068327 2.768064
C 6.0 2.098478 0.501359 3.159841
O 8.0 2.022268 1.114261 4.228952
N 7.0 3.356548 0.276281 2.573288
H 1.0 4.166721 0.630467 3.075849
C 6.0 3.635397 -0.387499 1.397680
O 8.0 4.779573 -0.559897 0.978447
C 6.0 1.604648 -3.718062 -0.404233
H 1.0 1.006733 -3.572081 0.500711
C 6.0 3.014271 -3.122195 -0.231453
H 1.0 3.435645 -3.278292 0.767592
O 8.0 3.881309 -3.639170 -1.240139
H 1.0 3.576491 -4.555702 -1.400096
O 8.0 1.626667 -5.093859 -0.784071
H 1.0 1.662223 -5.633815 0.023396
 $END
