!   File created by MacMolPlt 7.7.3
 $CONTRL SCFTYP=rhf RUNTYP=ENERGY MAXIT=1 $END
 $contrl ispher=1 $end
 $contrl icharg=0 mult=1 $end
 $CONTRL NPRINT=-5 $END
 $SYSTEM mwords=5000 memddi=5000 $END
 $BASIS
 GBASIS=df2tzvp !  Basis set name in the external file
 BASNAM=def2dt ! External file name, same as extbas in gms-files.*
 EXTFIL=.T. ! Tell gamess to look for an external file
 $END
 $SCF DIRSCF=.TRUE. $END
 $DATA
pc22
C1
C 6.0 -0.648664 1.221093 1.542610
C 6.0 -1.411615 0.053300 1.394586
C 6.0 -0.745015 -1.170427 1.547262
C 6.0 0.648664 -1.221093 1.542610
C 6.0 1.411615 -0.053300 1.394586
C 6.0 2.792872 -0.119654 0.793625
C 6.0 -2.792872 0.119654 0.793625
C 6.0 2.792872 0.119654 -0.793625
C 6.0 -2.792872 -0.119654 -0.793625
C 6.0 1.411615 0.053300 -1.394586
C 6.0 0.745015 -1.170427 -1.547262
C 6.0 -0.648664 -1.221093 -1.542610
C 6.0 -1.411615 -0.053300 -1.394586
C 6.0 -0.745015 1.170427 -1.547262
C 6.0 0.648664 1.221093 -1.542610
C 6.0 0.745015 1.170427 1.547262
H 1.0 -1.149404 2.190963 1.504738
H 1.0 -1.315220 -2.101388 1.514151
H 1.0 1.149404 -2.190963 1.504738
H 1.0 3.459968 0.629923 1.243743
H 1.0 3.227797 -1.109412 0.992316
H 1.0 -3.227797 1.109412 0.992316
H 1.0 -3.459968 -0.629923 1.243743
H 1.0 3.227797 1.109412 -0.992316
H 1.0 3.459968 -0.629923 -1.243743
H 1.0 -3.459968 0.629923 -1.243743
H 1.0 -3.227797 -1.109412 -0.992316
H 1.0 1.315220 -2.101388 -1.514151
H 1.0 -1.149404 -2.190963 -1.504738
H 1.0 -1.315220 2.101388 -1.514151
H 1.0 1.149404 2.190963 -1.504738
H 1.0 1.315220 2.101388 1.514151
 $END
