!   File created by MacMolPlt 7.7.3
 $CONTRL SCFTYP=rhf RUNTYP=ENERGY MAXIT=10 $END
 $contrl ispher=1 $end
 $contrl icharg=0 mult=1 $end
 $CONTRL NPRINT=-5 $END
 $SYSTEM mwords=5000 memddi=5000 $END
 $BASIS GBASIS=CCT $END
 $SCF DIRSCF=.TRUE. $END
 $DATA
17
C1
N 7.0 -1.484427 1.161731 0.000931
H 1.0 -0.456006 1.212968 0.001640
C 6.0 -2.051253 -0.101463 0.001519
O 8.0 -1.348527 -1.114554 0.002650
C 6.0 -3.498051 -0.123368 0.000496
H 1.0 -4.004019 -1.072871 0.000850
C 6.0 -4.176448 1.043055 -0.000906
H 1.0 -5.255325 1.089748 -0.001729
N 7.0 -3.529265 2.244373 -0.001402
H 1.0 -4.038266 3.112841 -0.002469
C 6.0 -2.145907 2.375984 -0.000509
O 8.0 -1.594272 3.455999 -0.000985
N 7.0 3.389401 0.053260 0.000516
H 1.0 3.836645 0.959833 0.000903
C 6.0 4.245449 -1.061358 -0.000984
O 8.0 5.454901 -0.909653 -0.001733
C 6.0 3.531231 -2.323531 -0.001488
H 1.0 4.097815 -3.238562 -0.002627
C 6.0 2.181062 -2.327349 -0.000528
H 1.0 1.604098 -3.240314 -0.000847
N 7.0 1.443070 -1.176468 0.000922
H 1.0 0.416734 -1.197911 0.001599
C 6.0 2.015841 0.068197 0.001473
O 8.0 1.365520 1.109415 0.002709
 $END
