!   File created by MacMolPlt 7.7.3
 $CONTRL SCFTYP=rhf RUNTYP=ENERGY MAXIT=10 $END
 $contrl ispher=1 $end
 $contrl icharg=-1 mult=1 $end
 $CONTRL NPRINT=-5 $END
 $SYSTEM mwords=5000 memddi=5000 $END
 $BASIS GBASIS=N311 NGAUSS=6 NDFUNC=3 NFFUNC=1 NPFUNC=3 $END
 $SCF DIRSCF=.TRUE. $END
 $DATA
1m
C1
H 1.0 -3.507884 -2.353846 -3.690301
O 8.0 -3.321559 -1.882219 -2.862947
C 6.0 -4.045641 -0.642299 -2.887340
H 1.0 -5.106324 -0.817491 -3.104109
H 1.0 -3.638812 0.036080 -3.649594
C 6.0 -3.906738 0.036349 -1.544314
H 1.0 -4.411494 1.009854 -1.600004
O 8.0 -4.538483 -0.755773 -0.499753
C 6.0 -3.815647 -0.635061 0.713943
H 1.0 -4.465684 -0.288194 1.518194
N 7.0 -3.332363 -1.985683 1.119163
C 6.0 -3.106025 -2.975378 0.195956
H 1.0 -3.317042 -2.697423 -0.832349
C 6.0 -2.666480 -4.210479 0.546223
H 1.0 -2.502371 -4.973842 -0.203077
C 6.0 -2.418285 -4.523258 1.929839
O 8.0 -2.019988 -5.603287 2.384836
N 7.0 -2.670008 -3.451865 2.801694
H 1.0 -2.502918 -3.617276 3.791300
C 6.0 -3.114775 -2.187110 2.479473
O 8.0 -3.301342 -1.307176 3.319955
C 6.0 -2.473132 0.252979 -1.051188
H 1.0 -1.828430 -0.586987 -1.325150
C 6.0 -2.660771 0.347453 0.469942
H 1.0 -1.765225 0.074565 1.037969
O 8.0 -3.108359 1.658415 0.822232
H 1.0 -2.746614 2.252975 0.134069
O 8.0 -1.956900 1.471421 -1.594824
P 15.0 -0.365096 1.537625 -2.063994
O 8.0 -0.217150 2.912799 -2.640223
O 8.0 -0.009295 0.296294 -2.819020
O 8.0 0.434978 1.422742 -0.643711
C 6.0 0.354097 2.502501 0.310043
H 1.0 -0.338470 2.215860 1.107547
H 1.0 -0.002736 3.417184 -0.175676
C 6.0 1.734855 2.761985 0.874489
H 1.0 1.667717 3.585617 1.598984
O 8.0 2.242484 1.582559 1.539689
C 6.0 3.652384 1.450790 1.314778
H 1.0 4.178058 1.472906 2.269192
N 7.0 3.930996 0.124067 0.746543
C 6.0 3.594817 -0.168825 -0.555323
H 1.0 3.120100 0.636203 -1.101465
C 6.0 3.815672 -1.375993 -1.125251
H 1.0 3.545178 -1.563397 -2.155617
C 6.0 4.401201 -2.437577 -0.344201
O 8.0 4.656622 -3.583445 -0.730347
N 7.0 4.652907 -2.078672 0.988765
H 1.0 5.041722 -2.800298 1.590414
C 6.0 4.444669 -0.859465 1.598505
O 8.0 4.682753 -0.666141 2.788249
C 6.0 2.774099 3.114623 -0.192822
H 1.0 2.554358 2.582418 -1.122512
C 6.0 4.094581 2.623076 0.427442
H 1.0 4.837200 2.316875 -0.318339
O 8.0 4.626450 3.638186 1.280518
H 1.0 4.315654 4.483146 0.892646
O 8.0 2.759322 4.524041 -0.426287
H 1.0 3.069168 4.686875 -1.332853
 $END
