!   File created by MacMolPlt 7.7.3
 $CONTRL SCFTYP=rhf RUNTYP=ENERGY MAXIT=1 $END
 $contrl ispher=1 $end
 $contrl icharg=0 mult=1 $end
 $CONTRL NPRINT=-5 $END
 $SYSTEM mwords=5000 memddi=5000 $END
 $BASIS GBASIS=N311 NGAUSS=6 NDFUNC=3 NFFUNC=1 NPFUNC=3 $END
 $SCF DIRSCF=.TRUE. $END
 $DATA
52B
C1
C 6.0 -0.146475 0.311392 -0.474793
O 8.0 -0.614664 1.360838 -0.854054
O 8.0 0.256738 -0.666171 -1.314078
H 1.0 0.088033 -0.340258 -2.215484
C 6.0 0.063479 -0.085595 0.956613
H 1.0 -0.246487 0.723741 1.606601
H 1.0 -0.512601 -0.982219 1.173564
H 1.0 1.111977 -0.321727 1.121631
 $END
