!   File created by MacMolPlt 7.7.3
 $CONTRL SCFTYP=rhf RUNTYP=ENERGY MAXIT=1 $END
 $contrl ispher=1 $end
 $contrl icharg=0 mult=1 $end
 $CONTRL NPRINT=-5 $END
 $SYSTEM mwords=5000 memddi=5000 $END
 $BASIS GBASIS=CCT $END
 $SCF DIRSCF=.TRUE. $END
 $DATA
53
C1
C 6.0 0.856839 0.515004 -1.325351
H 1.0 1.515104 1.059151 -0.662339
C 6.0 1.344175 -0.518907 -2.123948
H 1.0 2.394162 -0.776873 -2.093142
C 6.0 0.479085 -1.220230 -2.962921
H 1.0 0.857362 -2.022436 -3.581929
C 6.0 -0.873552 -0.886085 -3.005557
H 1.0 -1.544128 -1.429229 -3.657521
C 6.0 -1.361119 0.149458 -2.209259
H 1.0 -2.410293 0.409939 -2.244326
C 6.0 -0.497166 0.849628 -1.368113
H 1.0 -0.864833 1.646811 -0.737068
C 6.0 0.083208 0.654002 2.429623
O 8.0 0.329697 1.697429 1.842384
N 7.0 -0.220840 -0.501004 1.778456
H 1.0 -0.195639 -0.508020 0.771820
H 1.0 -0.376616 -1.356497 2.274158
C 6.0 0.106052 0.559110 3.938041
H 1.0 1.137766 0.643323 4.273115
H 1.0 -0.315852 -0.367533 4.319067
H 1.0 -0.443412 1.402957 4.344811
 $END
