!   File created by MacMolPlt 7.7.3
 $CONTRL SCFTYP=rhf RUNTYP=ENERGY MAXIT=10 $END
 $contrl ispher=1 $end
 $contrl icharg=0 mult=1 $end
 $CONTRL NPRINT=-5 $END
 $SYSTEM mwords=5000 memddi=5000 $END
 $BASIS
 GBASIS=df2svpd !  Basis set name in the external file
 BASNAM=def2dt ! External file name, same as extbas in gms-files.*
 EXTFIL=.T. ! Tell gamess to look for an external file
 $END
 $SCF DIRSCF=.TRUE. $END
 $DATA
03B
C1
N 7.0 -0.528120 -0.749778 0.024452
H 1.0 -0.232756 -1.302416 -0.770339
H 1.0 -0.218040 -1.260499 0.841311
C 6.0 0.131215 0.558586 -0.015790
H 1.0 -0.179327 1.140311 0.848725
H 1.0 1.222524 0.519291 -0.024746
H 1.0 -0.195497 1.094504 -0.903614
 $END
