!   File created by MacMolPlt 7.7.3
 $CONTRL SCFTYP=rhf RUNTYP=ENERGY MAXIT=10 $END
 $contrl ispher=1 $end
 $contrl icharg=0 mult=1 $end
 $CONTRL NPRINT=-5 $END
 $SYSTEM mwords=5000 memddi=5000 $END
 $BASIS
 GBASIS=df2svpd !  Basis set name in the external file
 BASNAM=def2dt ! External file name, same as extbas in gms-files.*
 EXTFIL=.T. ! Tell gamess to look for an external file
 $END
 $SCF DIRSCF=.TRUE. $END
 $DATA
30
C1
C 6.0 0.835519 1.115165 -1.168845
H 1.0 1.484326 1.980607 -1.170712
C 6.0 1.383277 -0.166149 -1.166481
H 1.0 2.457151 -0.295206 -1.167476
C 6.0 0.547557 -1.281318 -1.168561
H 1.0 0.972938 -2.275806 -1.170468
C 6.0 -0.835521 -1.115163 -1.168848
H 1.0 -1.484332 -1.980608 -1.170717
C 6.0 -1.383282 0.166152 -1.166489
H 1.0 -2.457154 0.295207 -1.167490
C 6.0 -0.547564 1.281322 -1.168567
H 1.0 -0.972941 2.275804 -1.170478
C 6.0 0.655783 -0.116792 2.340505
H 1.0 1.047243 -1.123911 2.336037
H 1.0 1.370856 0.693272 2.336003
C 6.0 -0.655774 0.116790 2.340514
H 1.0 -1.370846 -0.693274 2.336018
H 1.0 -1.047237 1.123909 2.336056
 $END
