!   File created by MacMolPlt 7.7.3
 $CONTRL SCFTYP=rhf RUNTYP=ENERGY MAXIT=10 $END
 $contrl ispher=1 $end
 $contrl icharg=0 mult=1 $end
 $CONTRL NPRINT=-5 $END
 $SYSTEM mwords=5000 memddi=5000 $END
 $BASIS
 GBASIS=df2tzvp !  Basis set name in the external file
 BASNAM=def2dt ! External file name, same as extbas in gms-files.*
 EXTFIL=.T. ! Tell gamess to look for an external file
 $END
 $SCF DIRSCF=.TRUE. $END
 $DATA
27A
C1
C 6.0 0.834087 1.097508 0.202349
H 1.0 1.481454 1.950003 0.358784
C 6.0 1.384338 -0.157188 -0.052635
H 1.0 2.458377 -0.278526 -0.096511
C 6.0 0.549719 -1.255157 -0.257825
H 1.0 0.976189 -2.228228 -0.461444
C 6.0 -0.833775 -1.097172 -0.205833
H 1.0 -1.481729 -1.948525 -0.365490
C 6.0 -1.384145 0.157306 0.054497
H 1.0 -2.457346 0.278244 0.107445
C 6.0 -0.549952 1.254739 0.256342
H 1.0 -0.977216 2.226997 0.460321
 $END
