!   File created by MacMolPlt 7.7.3
 $CONTRL SCFTYP=rhf RUNTYP=ENERGY MAXIT=1 $END
 $contrl ispher=1 $end
 $contrl icharg=0 mult=1 $end
 $CONTRL NPRINT=-5 $END
 $SYSTEM mwords=5000 memddi=5000 $END
 $BASIS
 GBASIS=df2svpd !  Basis set name in the external file
 BASNAM=def2dt ! External file name, same as extbas in gms-files.*
 EXTFIL=.T. ! Tell gamess to look for an external file
 $END
 $SCF DIRSCF=.TRUE. $END
 $DATA
03
C1
C 6.0 -1.888897 -0.179692 0.000000
C 6.0 1.888897 0.179692 0.000000
O 8.0 -1.170435 -1.166590 0.000000
O 8.0 -1.493281 1.073689 0.000000
O 8.0 1.493281 -1.073689 0.000000
O 8.0 1.170435 1.166590 0.000000
H 1.0 -0.498833 1.107195 0.000000
H 1.0 -2.979489 -0.258829 0.000000
H 1.0 2.979489 0.258829 0.000000
H 1.0 0.498833 -1.107195 0.000000
 $END
