!   File created by MacMolPlt 7.7.3
 $CONTRL SCFTYP=rhf RUNTYP=ENERGY MAXIT=10 $END
 $contrl ispher=1 $end
 $contrl icharg=-1 mult=1 $end
 $CONTRL NPRINT=-5 $END
 $SYSTEM mwords=5000 memddi=5000 $END
 $BASIS GBASIS=CCT $END
 $SCF DIRSCF=.TRUE. $END
 $DATA
7p
C1
H 1.0 1.964808 -4.656457 -2.132630
O 8.0 1.845383 -4.135673 -1.322628
C 6.0 0.454573 -4.179004 -0.965700
H 1.0 0.108528 -5.215483 -0.868923
H 1.0 -0.159894 -3.670717 -1.721646
C 6.0 0.263098 -3.451936 0.344994
H 1.0 -0.812268 -3.409863 0.561005
O 8.0 0.930256 -4.156315 1.429785
C 6.0 1.445626 -3.225687 2.374663
H 1.0 1.049849 -3.428308 3.370314
N 7.0 2.915573 -3.416704 2.476755
C 6.0 3.667363 -3.711439 1.364933
H 1.0 3.102984 -3.813562 0.442648
C 6.0 5.009364 -3.899324 1.417552
H 1.0 5.571292 -4.134618 0.523334
C 6.0 5.702355 -3.809857 2.678169
O 8.0 6.914569 -3.962687 2.870249
N 7.0 4.854868 -3.532267 3.762610
H 1.0 5.289070 -3.469753 4.680144
C 6.0 3.491096 -3.330220 3.744330
O 8.0 2.839155 -3.096650 4.761534
C 6.0 0.840575 -2.033208 0.398870
H 1.0 1.789056 -1.965464 -0.138974
C 6.0 1.050809 -1.818183 1.900366
H 1.0 1.822127 -1.076613 2.132533
O 8.0 -0.190306 -1.467322 2.521948
H 1.0 -0.720497 -1.037687 1.821702
O 8.0 -0.089562 -1.092574 -0.135670
P 15.0 0.355611 -0.106257 -1.399445
O 8.0 -0.380449 -0.532948 -2.628763
O 8.0 1.848093 0.045578 -1.374947
O 8.0 -0.385268 1.258520 -0.902081
C 6.0 0.080065 1.946338 0.277273
H 1.0 0.967629 2.536939 0.031337
H 1.0 0.334856 1.228810 1.066119
C 6.0 -1.042241 2.845388 0.758871
H 1.0 -0.733621 3.331828 1.689863
O 8.0 -1.286316 3.889432 -0.231917
C 6.0 -2.634433 3.834649 -0.691524
H 1.0 -3.249153 4.616617 -0.239215
N 7.0 -2.628762 4.105270 -2.134035
C 6.0 -1.830639 3.342319 -2.955995
H 1.0 -1.246614 2.586748 -2.438821
C 6.0 -1.765823 3.530481 -4.295363
H 1.0 -1.126317 2.915571 -4.914562
C 6.0 -2.553469 4.568934 -4.911906
O 8.0 -2.590361 4.851147 -6.115574
N 7.0 -3.333529 5.298287 -4.002139
H 1.0 -3.904430 6.046168 -4.387931
C 6.0 -3.425958 5.134958 -2.634719
O 8.0 -4.146352 5.841466 -1.932284
C 6.0 -2.380831 2.123925 0.968401
H 1.0 -2.253039 1.050225 1.118973
C 6.0 -3.156907 2.429345 -0.323769
H 1.0 -2.869653 1.716144 -1.099600
O 8.0 -4.561803 2.367104 -0.166954
H 1.0 -4.727419 2.653507 0.755169
O 8.0 -3.119165 2.702227 2.060597
H 1.0 -3.203556 2.038854 2.762676
 $END
