!   File created by MacMolPlt 7.7.3
 $CONTRL SCFTYP=rhf RUNTYP=ENERGY MAXIT=10 $END
 $contrl ispher=1 $end
 $contrl icharg=0 mult=1 $end
 $CONTRL NPRINT=-5 $END
 $SYSTEM mwords=5000 memddi=5000 $END
 $BASIS GBASIS=CCD $END
 $SCF DIRSCF=.TRUE. $END
 $DATA
56A
C1
C 6.0 0.759862 1.164969 -0.094232
H 1.0 1.349496 2.068623 -0.166557
C 6.0 1.385734 -0.080193 -0.132177
H 1.0 2.460690 -0.142800 -0.230666
C 6.0 0.625565 -1.245274 -0.037673
H 1.0 1.111466 -2.210897 -0.061458
C 6.0 -0.760006 -1.164745 0.092612
H 1.0 -1.349154 -2.068575 0.166266
C 6.0 -1.385865 0.080348 0.129308
H 1.0 -2.460686 0.142379 0.230769
C 6.0 -0.625914 1.245078 0.037156
H 1.0 -1.111189 2.211087 0.066654
 $END
