!   File created by MacMolPlt 7.7.3
 $CONTRL SCFTYP=rhf RUNTYP=ENERGY MAXIT=10 $END
 $contrl ispher=1 $end
 $contrl icharg=0 mult=1 $end
 $CONTRL NPRINT=-5 $END
 $SYSTEM mwords=5000 memddi=5000 $END
 $BASIS GBASIS=CCT $END
 $SCF DIRSCF=.TRUE. $END
 $DATA
55
C1
C 6.0 1.052816 1.247114 -1.134394
H 1.0 1.728083 2.091503 -1.133462
C 6.0 1.559685 -0.051524 -1.086894
H 1.0 2.627983 -0.213342 -1.048734
C 6.0 0.688388 -1.140153 -1.083262
H 1.0 1.081729 -2.146654 -1.045131
C 6.0 -0.689138 -0.930816 -1.126896
H 1.0 -1.364589 -1.775302 -1.123046
C 6.0 -1.196279 0.366988 -1.170594
H 1.0 -2.264880 0.529589 -1.200448
C 6.0 -0.325708 1.456170 -1.174283
H 1.0 -0.718694 2.462945 -1.203797
O 8.0 0.340086 0.522024 2.176947
H 1.0 0.426186 0.571897 1.219753
C 6.0 -0.556065 -0.535590 2.460002
H 1.0 -0.651785 -0.592325 3.540938
H 1.0 -1.548214 -0.363893 2.036211
H 1.0 -0.189604 -1.498631 2.097090
 $END
