!   File created by MacMolPlt 7.7.3
 $CONTRL SCFTYP=rhf RUNTYP=ENERGY MAXIT=10 $END
 $contrl ispher=1 $end
 $contrl icharg=0 mult=1 $end
 $CONTRL NPRINT=-5 $END
 $SYSTEM mwords=5000 memddi=5000 $END
 $BASIS
 GBASIS=df2svpd !  Basis set name in the external file
 BASNAM=def2dt ! External file name, same as extbas in gms-files.*
 EXTFIL=.T. ! Tell gamess to look for an external file
 $END
 $SCF DIRSCF=.TRUE. $END
 $DATA
18
C1
C 6.0 -0.808940 0.739223 -1.207108
C 6.0 -1.495804 0.619890 0.000000
C 6.0 -0.808940 0.739223 1.207108
C 6.0 0.564568 0.977985 1.207074
C 6.0 1.251385 1.097101 0.000000
C 6.0 0.564568 0.977985 -1.207074
H 1.0 -1.341609 0.643976 -2.143290
H 1.0 -2.559880 0.428583 0.000000
H 1.0 -1.341609 0.643976 2.143290
H 1.0 1.097142 1.070833 2.143696
H 1.0 2.316701 1.282976 0.000000
H 1.0 1.097142 1.070833 -2.143696
H 1.0 0.689891 -2.922604 -0.806073
H 1.0 0.689891 -2.922604 0.806073
H 1.0 -0.025242 -1.721596 0.000000
N 7.0 0.110734 -2.725780 0.000000
 $END
