!   File created by MacMolPlt 7.7.3
 $CONTRL SCFTYP=rhf RUNTYP=ENERGY MAXIT=1 $END
 $contrl ispher=1 $end
 $contrl icharg=0 mult=1 $end
 $CONTRL NPRINT=-5 $END
 $SYSTEM mwords=5000 memddi=5000 $END
 $BASIS GBASIS=CCT $END
 $SCF DIRSCF=.TRUE. $END
 $DATA
48B
C1
N 7.0 0.493541 -1.536137 0.000000
C 6.0 1.364209 -0.516709 0.000000
H 1.0 2.412065 -0.791014 0.000000
C 6.0 0.990823 0.825138 0.000000
H 1.0 1.738284 1.606249 0.000000
C 6.0 -0.365226 1.137557 0.000000
H 1.0 -0.694954 2.167852 0.000000
C 6.0 -1.283329 0.092371 0.000000
H 1.0 -2.347779 0.281109 0.000000
C 6.0 -0.807725 -1.216606 0.000000
H 1.0 -1.499909 -2.049810 0.000000
 $END
